Primitive Cell                          
   1.00000000000000     
    14.9202383072830198   -0.0003023004045369    0.0000000000000000
     7.4598573534507491   12.9214565550354283    0.0000000000000000
     0.0000000000000000    0.0000000000000000   20.0000000000000000
   H    C 
    24    33
Direct
  0.9159167552940062  0.5622846149719010  0.3824883229862692
  0.9183365327657995  0.5610781853642521  0.5974620620338271
  0.7763707178639621  0.4876691052258124  0.4899526814508093
  0.7763639388567043  0.7763639388567043  0.4899615467619185
  0.4876691052258124  0.7763707178639621  0.4899526814508093
  0.5391902097675825  0.2505664532334535  0.4890754053841917
  0.2505664532334535  0.5391902097675825  0.4890754053841917
  0.2505598275270486  0.2505598275270486  0.4890528466133546
  0.5622225658085966  0.5622225658085966  0.3824859728948411
  0.4858538487375270  0.4858538487375270  0.3194692676280653
  0.3741020693489077  0.4922300593372952  0.3562480340669509
  0.4922300593372952  0.3741020693489077  0.3562480340669509
  0.5622846149719010  0.9159167552940062  0.3824883229862692
  0.4858126428987504  0.0687239336211931  0.3194556511319178
  0.4922059936133536  0.1740716671783673  0.3562737050534253
  0.3740887928163446  0.1740598572109562  0.3562753003227144
  0.0687239336211931  0.4858126428987504  0.3194556511319178
  0.1740598572109562  0.3740887928163446  0.3562753003227144
  0.1740716671783673  0.4922059936133536  0.3562737050534253
  0.4646275029340146  0.4646275029340146  0.5958718490625756
  0.5610220483126653  0.5610220483126653  0.5974648298667162
  0.4645616810323645  0.1111057174912133  0.5958687524699329
  0.5610781853642521  0.9183365327657995  0.5974620620338271
  0.1111057174912133  0.4645616810323645  0.5958687524699329
  0.9043169290673987  0.5680493394552570  0.4898659875122036
  0.9591930650298224  0.5406138413178070  0.4294326352791202
  0.9599069890338825  0.5402532891449212  0.5499722916896488
  0.7890287561427058  0.6256804628991404  0.4899177114766857
  0.7341258963018973  0.7341258963018973  0.4899167182997246
  0.7341281317435175  0.5721353277858938  0.4899131752939141
  0.6256804628991404  0.7890287561427058  0.4899177114766857
  0.6256794230800864  0.6256794230800864  0.4899174579925969
  0.5721353277858938  0.7341281317435175  0.4899131752939141
  0.2378186507776903  0.4012556206267774  0.4889501057689287
  0.2928100077804388  0.2928100077804388  0.4889110482021977
  0.4012556206267774  0.2378186507776903  0.4889501057689287
  0.4547024613141772  0.2928165257075221  0.4889236273452724
  0.4012637313400234  0.4012637313400234  0.4889553501757433
  0.2928165257075221  0.4547024613141772  0.4889236273452724
  0.5680291181752111  0.5680291181752111  0.4898660759551774
  0.5405866227672576  0.5405866227672576  0.4294339669948357
  0.4864055725661203  0.4864055725661203  0.4274319062203418
  0.4589332172202347  0.4589332172202347  0.4884619951937665
  0.4583776482756861  0.4583776482756861  0.3613183328144345
  0.5680493394552570  0.9043169290673987  0.4898659875122036
  0.5406138413178070  0.9591930650298224  0.4294326352791202
  0.4864096508789686  0.0675549212355975  0.4274275692026919
  0.4589147028118106  0.1224964262521056  0.4884552298215823
  0.4583668949719737  0.1236318751911654  0.3613259790165984
  0.0675549212355975  0.4864096508789686  0.4274275692026919
  0.1224964262521056  0.4589147028118106  0.4884552298215823
  0.1236318751911654  0.4583668949719737  0.3613259790165984
  0.4862409454838712  0.4862409454838712  0.5489651110666856
  0.5402332109794585  0.5402332109794585  0.5499750067178084
  0.4862207045466747  0.0678880688828514  0.5489605908678996
  0.5402532891449212  0.9599069890338825  0.5499722916896488
  0.0678880688828514  0.4862207045466747  0.5489605908678996
 
  0.00000000E+00  0.00000000E+00  0.00000000E+00
  0.00000000E+00  0.00000000E+00  0.00000000E+00
  0.00000000E+00  0.00000000E+00  0.00000000E+00
  0.00000000E+00  0.00000000E+00  0.00000000E+00
  0.00000000E+00  0.00000000E+00  0.00000000E+00
  0.00000000E+00  0.00000000E+00  0.00000000E+00
  0.00000000E+00  0.00000000E+00  0.00000000E+00
  0.00000000E+00  0.00000000E+00  0.00000000E+00
  0.00000000E+00  0.00000000E+00  0.00000000E+00
  0.00000000E+00  0.00000000E+00  0.00000000E+00
  0.00000000E+00  0.00000000E+00  0.00000000E+00
  0.00000000E+00  0.00000000E+00  0.00000000E+00
  0.00000000E+00  0.00000000E+00  0.00000000E+00
  0.00000000E+00  0.00000000E+00  0.00000000E+00
  0.00000000E+00  0.00000000E+00  0.00000000E+00
  0.00000000E+00  0.00000000E+00  0.00000000E+00
  0.00000000E+00  0.00000000E+00  0.00000000E+00
  0.00000000E+00  0.00000000E+00  0.00000000E+00
  0.00000000E+00  0.00000000E+00  0.00000000E+00
  0.00000000E+00  0.00000000E+00  0.00000000E+00
  0.00000000E+00  0.00000000E+00  0.00000000E+00
  0.00000000E+00  0.00000000E+00  0.00000000E+00
  0.00000000E+00  0.00000000E+00  0.00000000E+00
  0.00000000E+00  0.00000000E+00  0.00000000E+00
  0.00000000E+00  0.00000000E+00  0.00000000E+00
  0.00000000E+00  0.00000000E+00  0.00000000E+00
  0.00000000E+00  0.00000000E+00  0.00000000E+00
  0.00000000E+00  0.00000000E+00  0.00000000E+00
  0.00000000E+00  0.00000000E+00  0.00000000E+00
  0.00000000E+00  0.00000000E+00  0.00000000E+00
  0.00000000E+00  0.00000000E+00  0.00000000E+00
  0.00000000E+00  0.00000000E+00  0.00000000E+00
  0.00000000E+00  0.00000000E+00  0.00000000E+00
  0.00000000E+00  0.00000000E+00  0.00000000E+00
  0.00000000E+00  0.00000000E+00  0.00000000E+00
  0.00000000E+00  0.00000000E+00  0.00000000E+00
  0.00000000E+00  0.00000000E+00  0.00000000E+00
  0.00000000E+00  0.00000000E+00  0.00000000E+00
  0.00000000E+00  0.00000000E+00  0.00000000E+00
  0.00000000E+00  0.00000000E+00  0.00000000E+00
  0.00000000E+00  0.00000000E+00  0.00000000E+00
  0.00000000E+00  0.00000000E+00  0.00000000E+00
  0.00000000E+00  0.00000000E+00  0.00000000E+00
  0.00000000E+00  0.00000000E+00  0.00000000E+00
  0.00000000E+00  0.00000000E+00  0.00000000E+00
  0.00000000E+00  0.00000000E+00  0.00000000E+00
  0.00000000E+00  0.00000000E+00  0.00000000E+00
  0.00000000E+00  0.00000000E+00  0.00000000E+00
  0.00000000E+00  0.00000000E+00  0.00000000E+00
  0.00000000E+00  0.00000000E+00  0.00000000E+00
  0.00000000E+00  0.00000000E+00  0.00000000E+00
  0.00000000E+00  0.00000000E+00  0.00000000E+00
  0.00000000E+00  0.00000000E+00  0.00000000E+00
  0.00000000E+00  0.00000000E+00  0.00000000E+00
  0.00000000E+00  0.00000000E+00  0.00000000E+00
  0.00000000E+00  0.00000000E+00  0.00000000E+00
  0.00000000E+00  0.00000000E+00  0.00000000E+00
