Primitive Cell                          
   1.00000000000000     
    25.5221585019179500   -0.0131939885213854    0.0000000000000000
    -0.0265447872980729   25.5138932693919323    0.0000000000000000
     0.0000000000000000    0.0000000000000000   20.0000000000000000
   C    N    H 
    58    12    38
Direct
  0.8910736307225591  0.8548404777859773  0.4614894199965676
  0.8534040227015609  0.8930331550517252  0.4660973995996684
  0.8792271620228433  0.9430209364328022  0.4663130180280035
  0.9413901202851136  0.8800062556571788  0.4604895596040848
  0.9906291502007676  0.8553808474465256  0.4576879338782760
  0.0396132034883792  0.8812908992704251  0.4569264529731925
  0.1006288996034002  0.9412221257395217  0.4573583538040893
  0.1274881150028548  0.8908778188132587  0.4537419532487235
  0.0894905364468883  0.8535006414186839  0.4544206713337644
  0.1273799460459628  0.9897549646108459  0.4581770382001125
  0.1035267201400458  0.0393595538402494  0.4612864739792855
  0.0413843263591076  0.1022965688218136  0.4682733628402076
  0.0916814782175805  0.1274843659666445  0.4679280110392767
  0.1294193017437664  0.0892685368217414  0.4641695097469594
  0.9922002166560020  0.1269641677053173  0.4717976074837154
  0.9431666420636162  0.1011914456567808  0.4706971510799818
  0.8822702152494344  0.0411769430356443  0.4704769271390106
  0.8553154050990486  0.0914830467020735  0.4738122671476219
  0.8932890915382785  0.1288641456975199  0.4748349507078373
  0.8555143999243313  0.9926476799107036  0.4705456553103957
  0.7975725804202796  0.9932839140565974  0.4794516824401143
  0.6879596302772413  0.9920201976179683  0.5011555344514989
  0.7092333894964327  0.9732068473931150  0.4407102733760482
  0.7631853975172334  0.9739385697508780  0.4303320975878790
  0.9926760111795900  0.1850042573331834  0.4805383608910745
  0.9911353757746113  0.2947208085095525  0.5017465432093786
  0.9712733414230357  0.2730687508889389  0.4420276744674609
  0.9721328298524483  0.2190591212756132  0.4318966456144224
  0.1857486035916693  0.9892836924677866  0.4559289591157167
  0.2128382918325755  0.0095807038906202  0.4004144694352334
  0.2672755467041199  0.0084691536108110  0.3976116990418674
  0.2965841892004590  0.9883469119329220  0.4513989101538272
  0.9901202598199319  0.7969957085876018  0.4554717398710295
  0.0080604644798115  0.7698234005550049  0.3987495552868552
  0.9874616337383699  0.6861382874622990  0.4505954498779374
  0.0061422516223786  0.7153901314299205  0.3958547269786052
  0.9910701685355221  0.4397617567833478  0.4873395058542584
  0.9923688762160907  0.3836847064907829  0.4722063365254812
  0.5429591214006919  0.9923565718964014  0.4875249715545280
  0.5989489431228563  0.9936743809603072  0.4721016709108810
  0.7761192917410895  0.0120262101933264  0.5396238196138725
  0.7223838848699913  0.0109173367326250  0.5505896388400942
  0.0124830581650599  0.2068322228558728  0.5399495970407528
  0.0111674804778232  0.2606156393341195  0.5507530570184969
  0.2695991720590385  0.9674382083510622  0.5068747643146665
  0.2150904138322218  0.9679358267949283  0.5087832149888598
  0.9702612606071241  0.7677025717113750  0.5093785625513263
  0.9688722527803790  0.7131981820473428  0.5072799755105848
  0.9920558333871199  0.5449656401316147  0.4933089363716334
  0.9932180961925567  0.5166713510401877  0.5533553757011376
  0.9920030230337318  0.4622297687510155  0.5523332577910054
  0.9923687947744853  0.4316226992157794  0.6161899882771422
  0.9939908095360295  0.6024267357323438  0.4956849764826003
  0.4378053177184071  0.9931384481175982  0.4939876065071189
  0.4662853863933520  0.9940675380306985  0.5539069611175975
  0.5207071912933401  0.9930169649670475  0.5526356228458482
  0.5515679607648707  0.9932277550384327  0.6163046547448729
  0.3803441132209002  0.9946293127762331  0.4967119922156513
  0.9321691473663947  0.9331159637131066  0.4628403193062027
  0.0473120833961147  0.9344782890315173  0.4590665148154898
  0.0505658114635565  0.0492447949098676  0.4638373459455352
  0.9355133048815034  0.0480101634483887  0.4678313777584364
  0.9907554006478776  0.3481033727307263  0.5178153927421647
  0.3511063069743301  0.9885752334972935  0.4451363314819261
  0.9868255711017468  0.6315832788631113  0.4442597273070987
  0.6346509944343524  0.9916619313422430  0.5175126382526969
  0.9900286534159335  0.4693605369093135  0.4306301160903416
  0.9899241191703254  0.5208861245783680  0.4328660408273493
  0.5132034245875587  0.9915669197531116  0.4309565163013787
  0.4617040237491992  0.9914178147161650  0.4333914904083471
  0.0192128682641197  0.6942736277856909  0.3514996859707864
  0.0227799796888348  0.7920667873930327  0.3560958140989996
  0.8849569926470835  0.8128326978064209  0.4590374072347103
  0.8113485063546264  0.8874547503059560  0.4689969930592142
  0.9606440187461516  0.9612622168926279  0.4629853733492908
  0.0221097136875628  0.0210909810418798  0.4632493255267249
  0.0945470777334450  0.8112872845234733  0.4532598443739317
  0.1695507730532384  0.8851229694556793  0.4509559802242578
  0.1905572703438310  0.0254319019190277  0.3584844984793705
  0.2883767740670820  0.0232692841459397  0.3541109738965673
  0.1715652586295775  0.0946630125617531  0.4635254709390466
  0.0976301157003832  0.1695351285240037  0.4702259942084197
  0.8132085024020270  0.0972309025808613  0.4751871946181438
  0.8881523096233721  0.1709916102769498  0.4781686615085547
  0.9562701417357005  0.2026364775550036  0.3857453770076944
  0.9540479004593720  0.2985125953512906  0.4041062818544177
  0.7792522908407307  0.9591559569773906  0.3834308214760256
  0.6835397797117295  0.9569770840275496  0.4023103441810036
  0.9958099235770419  0.3752356851685050  0.4182161181763391
  0.6072336056312864  0.9974354807619292  0.4181142047723085
  0.9520882884831607  0.6913984491881706  0.5490746731415541
  0.9556001895231105  0.7882745402242222  0.5533969948867110
  0.1945389370259036  0.9513920146068813  0.5517407214008330
  0.2915032999683262  0.9495712237093770  0.5477915823958739
  0.0279112938122807  0.1808498710740238  0.5785148972443253
  0.0255023050669507  0.2775182950908146  0.5973943032013480
  0.7057687629280096  0.0245748600477569  0.5977017623884677
  0.8023787555563615  0.0266458303296275  0.5784289678382919
  0.9948824367098581  0.5375292066370179  0.6010738227068870
  0.9938313581743117  0.4582110500129986  0.6593439991627363
  0.9576008332930002  0.4063705496449401  0.6200363069242201
  0.0259113427688362  0.4047261407002836  0.6179516947147548
  0.0028434318732309  0.6189565895563973  0.5456764194099577
  0.4455564034808717  0.9954005060375053  0.6017226658865056
  0.5251732734949286  0.9944838896773405  0.6596407911421807
  0.5768050326453320  0.9584940537613136  0.6197348713270046
  0.5785106693598223  0.0268293110207480  0.6180740744028981
  0.3639199111852065  0.0020218990317389  0.5471250273545678
 
  0.00000000E+00  0.00000000E+00  0.00000000E+00
  0.00000000E+00  0.00000000E+00  0.00000000E+00
  0.00000000E+00  0.00000000E+00  0.00000000E+00
  0.00000000E+00  0.00000000E+00  0.00000000E+00
  0.00000000E+00  0.00000000E+00  0.00000000E+00
  0.00000000E+00  0.00000000E+00  0.00000000E+00
  0.00000000E+00  0.00000000E+00  0.00000000E+00
  0.00000000E+00  0.00000000E+00  0.00000000E+00
  0.00000000E+00  0.00000000E+00  0.00000000E+00
  0.00000000E+00  0.00000000E+00  0.00000000E+00
  0.00000000E+00  0.00000000E+00  0.00000000E+00
  0.00000000E+00  0.00000000E+00  0.00000000E+00
  0.00000000E+00  0.00000000E+00  0.00000000E+00
  0.00000000E+00  0.00000000E+00  0.00000000E+00
  0.00000000E+00  0.00000000E+00  0.00000000E+00
  0.00000000E+00  0.00000000E+00  0.00000000E+00
  0.00000000E+00  0.00000000E+00  0.00000000E+00
  0.00000000E+00  0.00000000E+00  0.00000000E+00
  0.00000000E+00  0.00000000E+00  0.00000000E+00
  0.00000000E+00  0.00000000E+00  0.00000000E+00
  0.00000000E+00  0.00000000E+00  0.00000000E+00
  0.00000000E+00  0.00000000E+00  0.00000000E+00
  0.00000000E+00  0.00000000E+00  0.00000000E+00
  0.00000000E+00  0.00000000E+00  0.00000000E+00
  0.00000000E+00  0.00000000E+00  0.00000000E+00
  0.00000000E+00  0.00000000E+00  0.00000000E+00
  0.00000000E+00  0.00000000E+00  0.00000000E+00
  0.00000000E+00  0.00000000E+00  0.00000000E+00
  0.00000000E+00  0.00000000E+00  0.00000000E+00
  0.00000000E+00  0.00000000E+00  0.00000000E+00
  0.00000000E+00  0.00000000E+00  0.00000000E+00
  0.00000000E+00  0.00000000E+00  0.00000000E+00
  0.00000000E+00  0.00000000E+00  0.00000000E+00
  0.00000000E+00  0.00000000E+00  0.00000000E+00
  0.00000000E+00  0.00000000E+00  0.00000000E+00
  0.00000000E+00  0.00000000E+00  0.00000000E+00
  0.00000000E+00  0.00000000E+00  0.00000000E+00
  0.00000000E+00  0.00000000E+00  0.00000000E+00
  0.00000000E+00  0.00000000E+00  0.00000000E+00
  0.00000000E+00  0.00000000E+00  0.00000000E+00
  0.00000000E+00  0.00000000E+00  0.00000000E+00
  0.00000000E+00  0.00000000E+00  0.00000000E+00
  0.00000000E+00  0.00000000E+00  0.00000000E+00
  0.00000000E+00  0.00000000E+00  0.00000000E+00
  0.00000000E+00  0.00000000E+00  0.00000000E+00
  0.00000000E+00  0.00000000E+00  0.00000000E+00
  0.00000000E+00  0.00000000E+00  0.00000000E+00
  0.00000000E+00  0.00000000E+00  0.00000000E+00
  0.00000000E+00  0.00000000E+00  0.00000000E+00
  0.00000000E+00  0.00000000E+00  0.00000000E+00
  0.00000000E+00  0.00000000E+00  0.00000000E+00
  0.00000000E+00  0.00000000E+00  0.00000000E+00
  0.00000000E+00  0.00000000E+00  0.00000000E+00
  0.00000000E+00  0.00000000E+00  0.00000000E+00
  0.00000000E+00  0.00000000E+00  0.00000000E+00
  0.00000000E+00  0.00000000E+00  0.00000000E+00
  0.00000000E+00  0.00000000E+00  0.00000000E+00
  0.00000000E+00  0.00000000E+00  0.00000000E+00
  0.00000000E+00  0.00000000E+00  0.00000000E+00
  0.00000000E+00  0.00000000E+00  0.00000000E+00
  0.00000000E+00  0.00000000E+00  0.00000000E+00
  0.00000000E+00  0.00000000E+00  0.00000000E+00
  0.00000000E+00  0.00000000E+00  0.00000000E+00
  0.00000000E+00  0.00000000E+00  0.00000000E+00
  0.00000000E+00  0.00000000E+00  0.00000000E+00
  0.00000000E+00  0.00000000E+00  0.00000000E+00
  0.00000000E+00  0.00000000E+00  0.00000000E+00
  0.00000000E+00  0.00000000E+00  0.00000000E+00
  0.00000000E+00  0.00000000E+00  0.00000000E+00
  0.00000000E+00  0.00000000E+00  0.00000000E+00
  0.00000000E+00  0.00000000E+00  0.00000000E+00
  0.00000000E+00  0.00000000E+00  0.00000000E+00
  0.00000000E+00  0.00000000E+00  0.00000000E+00
  0.00000000E+00  0.00000000E+00  0.00000000E+00
  0.00000000E+00  0.00000000E+00  0.00000000E+00
  0.00000000E+00  0.00000000E+00  0.00000000E+00
  0.00000000E+00  0.00000000E+00  0.00000000E+00
  0.00000000E+00  0.00000000E+00  0.00000000E+00
  0.00000000E+00  0.00000000E+00  0.00000000E+00
  0.00000000E+00  0.00000000E+00  0.00000000E+00
  0.00000000E+00  0.00000000E+00  0.00000000E+00
  0.00000000E+00  0.00000000E+00  0.00000000E+00
  0.00000000E+00  0.00000000E+00  0.00000000E+00
  0.00000000E+00  0.00000000E+00  0.00000000E+00
  0.00000000E+00  0.00000000E+00  0.00000000E+00
  0.00000000E+00  0.00000000E+00  0.00000000E+00
  0.00000000E+00  0.00000000E+00  0.00000000E+00
  0.00000000E+00  0.00000000E+00  0.00000000E+00
  0.00000000E+00  0.00000000E+00  0.00000000E+00
  0.00000000E+00  0.00000000E+00  0.00000000E+00
  0.00000000E+00  0.00000000E+00  0.00000000E+00
  0.00000000E+00  0.00000000E+00  0.00000000E+00
  0.00000000E+00  0.00000000E+00  0.00000000E+00
  0.00000000E+00  0.00000000E+00  0.00000000E+00
  0.00000000E+00  0.00000000E+00  0.00000000E+00
  0.00000000E+00  0.00000000E+00  0.00000000E+00
  0.00000000E+00  0.00000000E+00  0.00000000E+00
  0.00000000E+00  0.00000000E+00  0.00000000E+00
  0.00000000E+00  0.00000000E+00  0.00000000E+00
  0.00000000E+00  0.00000000E+00  0.00000000E+00
  0.00000000E+00  0.00000000E+00  0.00000000E+00
  0.00000000E+00  0.00000000E+00  0.00000000E+00
  0.00000000E+00  0.00000000E+00  0.00000000E+00
  0.00000000E+00  0.00000000E+00  0.00000000E+00
  0.00000000E+00  0.00000000E+00  0.00000000E+00
  0.00000000E+00  0.00000000E+00  0.00000000E+00
  0.00000000E+00  0.00000000E+00  0.00000000E+00
  0.00000000E+00  0.00000000E+00  0.00000000E+00
