Primitive Cell                          
   1.00000000000000     
    21.6833059222439886    0.0000000000000000    0.0000000000000000
   -10.8416529611219943   18.7782937666928618    0.0000000000000000
     0.0000000000000000    0.0000000000000000   20.0000000000000000
   C    N    H 
    36    18    12
Direct
  0.4046897550255366  0.2023448775127719  0.5627142885023773
  0.3717735754867917  0.1858867877433994  0.4987235088886308
  0.5178557067229832  0.2589278533614845  0.5071955519052054
  0.4796324905312517  0.2398162452656294  0.5662049634176682
  0.4797779498316501  0.2398889749158286  0.4458192682297337
  0.5970969787477003  0.2985484893738430  0.5070740324923335
  0.7014515106261570  0.4029030212522997  0.5070740324923335
  0.7014515106261570  0.2985484893738430  0.5070740324923335
  0.9651944537106871  0.9303889074213814  0.5070066327016178
  0.0696110925786186  0.0348055462893129  0.5070066327016178
  0.9651944537106871  0.0348055462893129  0.5070066327016178
  0.8688878040321342  0.1311121959678658  0.5627649100561953
  0.9063853433489797  0.0936146566510203  0.5661952014471012
  0.7410721466385155  0.2589278533614845  0.5071955519052054
  0.7601837547343706  0.2398162452656294  0.5662049634176682
  0.7976551224872281  0.2023448775127719  0.5627142885023773
  0.8688878040321342  0.7377756080642754  0.5627649100561953
  0.9063853433489797  0.8127706866979594  0.5661952014471012
  0.7410721466385155  0.4821442932770168  0.5071955519052054
  0.7601837547343706  0.5203675094687483  0.5662049634176682
  0.7976551224872281  0.5953102449744634  0.5627142885023773
  0.2622243919357246  0.1311121959678658  0.5627649100561953
  0.1872293133020406  0.0936146566510203  0.5661952014471012
  0.9255302906691725  0.0744697093308275  0.5071861352235985
  0.9064704623679418  0.0935295376320582  0.4458142720646237
  0.8524576258286345  0.1475423741713655  0.4987408403484537
  0.8141132122566006  0.1858867877433994  0.4987235088886308
  0.7601110250841714  0.2398889749158286  0.4458192682297337
  0.9255302906691725  0.8510605813383449  0.5071861352235985
  0.9064704623679418  0.8129409247358836  0.4458142720646237
  0.8524576258286345  0.7049152516572619  0.4987408403484537
  0.8141132122566006  0.6282264245132083  0.4987235088886308
  0.7601110250841714  0.5202220501683499  0.4458192682297337
  0.1489394186616551  0.0744697093308275  0.5071861352235985
  0.1870590752641164  0.0935295376320582  0.4458142720646237
  0.2950847483427381  0.1475423741713655  0.4987408403484537
  0.3678316503017740  0.1839158251508906  0.6230022606492085
  0.4094673301474714  0.2047336650737321  0.4410537591463637
  0.6299567106753443  0.3700432893246557  0.5069039705127878
  0.6299567106753443  0.2599134213506957  0.5069039705127878
  0.7400865786493043  0.3700432893246557  0.5069039705127878
  0.0367257844541982  0.9632742155458018  0.5068173165424668
  0.0367257844541982  0.0734515689083821  0.5068173165424668
  0.9265484310916179  0.9632742155458018  0.5068173165424668
  0.8160841748491094  0.1839158251508906  0.6230022606492085
  0.8503816649997731  0.1496183350002269  0.6230280657818241
  0.8160841748491094  0.6321683496982260  0.6230022606492085
  0.8503816649997731  0.7007633299995391  0.6230280657818241
  0.2992366700004609  0.1496183350002269  0.6230280657818241
  0.8713125043787642  0.1286874956212358  0.4410642870086221
  0.7952663349262679  0.2047336650737321  0.4410537591463637
  0.8713125043787642  0.7426250087575283  0.4410642870086221
  0.7952663349262679  0.5905326698525286  0.4410537591463637
  0.2573749912424645  0.1286874956212358  0.4410642870086221
  0.5049789944608634  0.2524894972304352  0.6152933733622419
  0.5092806662820379  0.2546403331410190  0.3986291515536919
  0.9190990966722978  0.0809009033277022  0.6152406535893462
  0.7475105027695648  0.2524894972304352  0.6152933733622419
  0.9190990966722978  0.8381981933446028  0.6152406535893462
  0.7475105027695648  0.4950210055391366  0.6152933733622419
  0.1618018066553972  0.0809009033277022  0.6152406535893462
  0.9211987281158756  0.0788012718841244  0.3985968345059234
  0.7453596668589810  0.2546403331410190  0.3986291515536919
  0.9211987281158756  0.8423974562317511  0.3985968345059234
  0.7453596668589810  0.4907193337179621  0.3986291515536919
  0.1576025437682489  0.0788012718841244  0.3985968345059234
 
  0.00000000E+00  0.00000000E+00  0.00000000E+00
  0.00000000E+00  0.00000000E+00  0.00000000E+00
  0.00000000E+00  0.00000000E+00  0.00000000E+00
  0.00000000E+00  0.00000000E+00  0.00000000E+00
  0.00000000E+00  0.00000000E+00  0.00000000E+00
  0.00000000E+00  0.00000000E+00  0.00000000E+00
  0.00000000E+00  0.00000000E+00  0.00000000E+00
  0.00000000E+00  0.00000000E+00  0.00000000E+00
  0.00000000E+00  0.00000000E+00  0.00000000E+00
  0.00000000E+00  0.00000000E+00  0.00000000E+00
  0.00000000E+00  0.00000000E+00  0.00000000E+00
  0.00000000E+00  0.00000000E+00  0.00000000E+00
  0.00000000E+00  0.00000000E+00  0.00000000E+00
  0.00000000E+00  0.00000000E+00  0.00000000E+00
  0.00000000E+00  0.00000000E+00  0.00000000E+00
  0.00000000E+00  0.00000000E+00  0.00000000E+00
  0.00000000E+00  0.00000000E+00  0.00000000E+00
  0.00000000E+00  0.00000000E+00  0.00000000E+00
  0.00000000E+00  0.00000000E+00  0.00000000E+00
  0.00000000E+00  0.00000000E+00  0.00000000E+00
  0.00000000E+00  0.00000000E+00  0.00000000E+00
  0.00000000E+00  0.00000000E+00  0.00000000E+00
  0.00000000E+00  0.00000000E+00  0.00000000E+00
  0.00000000E+00  0.00000000E+00  0.00000000E+00
  0.00000000E+00  0.00000000E+00  0.00000000E+00
  0.00000000E+00  0.00000000E+00  0.00000000E+00
  0.00000000E+00  0.00000000E+00  0.00000000E+00
  0.00000000E+00  0.00000000E+00  0.00000000E+00
  0.00000000E+00  0.00000000E+00  0.00000000E+00
  0.00000000E+00  0.00000000E+00  0.00000000E+00
  0.00000000E+00  0.00000000E+00  0.00000000E+00
  0.00000000E+00  0.00000000E+00  0.00000000E+00
  0.00000000E+00  0.00000000E+00  0.00000000E+00
  0.00000000E+00  0.00000000E+00  0.00000000E+00
  0.00000000E+00  0.00000000E+00  0.00000000E+00
  0.00000000E+00  0.00000000E+00  0.00000000E+00
  0.00000000E+00  0.00000000E+00  0.00000000E+00
  0.00000000E+00  0.00000000E+00  0.00000000E+00
  0.00000000E+00  0.00000000E+00  0.00000000E+00
  0.00000000E+00  0.00000000E+00  0.00000000E+00
  0.00000000E+00  0.00000000E+00  0.00000000E+00
  0.00000000E+00  0.00000000E+00  0.00000000E+00
  0.00000000E+00  0.00000000E+00  0.00000000E+00
  0.00000000E+00  0.00000000E+00  0.00000000E+00
  0.00000000E+00  0.00000000E+00  0.00000000E+00
  0.00000000E+00  0.00000000E+00  0.00000000E+00
  0.00000000E+00  0.00000000E+00  0.00000000E+00
  0.00000000E+00  0.00000000E+00  0.00000000E+00
  0.00000000E+00  0.00000000E+00  0.00000000E+00
  0.00000000E+00  0.00000000E+00  0.00000000E+00
  0.00000000E+00  0.00000000E+00  0.00000000E+00
  0.00000000E+00  0.00000000E+00  0.00000000E+00
  0.00000000E+00  0.00000000E+00  0.00000000E+00
  0.00000000E+00  0.00000000E+00  0.00000000E+00
  0.00000000E+00  0.00000000E+00  0.00000000E+00
  0.00000000E+00  0.00000000E+00  0.00000000E+00
  0.00000000E+00  0.00000000E+00  0.00000000E+00
  0.00000000E+00  0.00000000E+00  0.00000000E+00
  0.00000000E+00  0.00000000E+00  0.00000000E+00
  0.00000000E+00  0.00000000E+00  0.00000000E+00
  0.00000000E+00  0.00000000E+00  0.00000000E+00
  0.00000000E+00  0.00000000E+00  0.00000000E+00
  0.00000000E+00  0.00000000E+00  0.00000000E+00
  0.00000000E+00  0.00000000E+00  0.00000000E+00
  0.00000000E+00  0.00000000E+00  0.00000000E+00
  0.00000000E+00  0.00000000E+00  0.00000000E+00
