Primitive Cell                          
   1.00000000000000     
    32.3337789975483787   -0.3409471955914323    0.0000000000000000
   -16.4559369986601602   27.9322789846781170    0.0000000000000000
     0.0000000000000000    0.0000000000000000   20.0000000000000000
   C    N    H    O 
    84    24    24    12
Direct
  0.0275401873826979  0.9665878454219197  0.3979778837612002
  0.0308110288666867  0.8908514699369121  0.4104125353260883
  0.1272242245127515  0.8641187149461302  0.4188155024026372
  0.1020392965794414  0.8910778771093462  0.4089985753219949
  0.0543729977313774  0.9410647672724437  0.3999777211839799
  0.1044327213869494  0.9661743692307354  0.3921545331678971
  0.1289332293478154  0.9412623096399670  0.3962104034365694
  0.1822750455319238  0.9684873655364541  0.3879212256329012
  0.2083736853496845  0.9399133327857996  0.3958045085504551
  0.0282900233495411  0.0369753905802241  0.3934844227925112
  0.9568666415945373  0.9656623126805286  0.3956016487690803
  0.1875251916028162  0.7255607619086177  0.5384127073857954
  0.1956655813614745  0.7899381769163796  0.4821529135997693
  0.2598151554119781  0.7956922660175607  0.5367035627540417
  0.5514610540579739  0.7987936240123119  0.5575997728476665
  0.6100954156337153  0.7915497974165433  0.5069540900844274
  0.5532679704912340  0.7301810383746528  0.5697052052709708
  0.2618062424324776  0.4387821189168264  0.5703714001232427
  0.2007280153029498  0.3818020364132266  0.5073120028712168
  0.1923734365488414  0.4394520123322039  0.5585503738286803
  0.1224535073236908  0.7933573465967001  0.4489940733744220
  0.6863729675242141  0.7940871215710175  0.4735014092196153
  0.8764223577494832  0.8900020703882063  0.4159127254911255
  0.1989204101039164  0.3060356803291455  0.4743706295888543
  0.1040793146483878  0.1170656734503197  0.4137748536501533
  0.3117324813066986  0.8197706085667349  0.5531926354217021
  0.4061972370450917  0.8445548065302759  0.5706120953820957
  0.3743423769327237  0.8270105021157548  0.6260699806516357
  0.3261718015446888  0.8130365905583687  0.6158984407352719
  0.4523653518259891  0.8451589205805234  0.5737087571315911
  0.5232640519801492  0.8223798870213415  0.5681628539315255
  0.4991835755614886  0.8163113253276890  0.6285311046353286
  0.4641814766929855  0.8290662968190574  0.6325239796282673
  0.4384603576465196  0.8221956214591657  0.6968303877190252
  0.3895516088101587  0.8200649912181461  0.6931262124313164
  0.5257080485455816  0.6793090533978514  0.5912976035418680
  0.4542033772450651  0.5847792691152236  0.6104522822419938
  0.4641315832516781  0.6186434242411565  0.6620416072373345
  0.4995276351097075  0.6666775011617716  0.6508867556599824
  0.4075622543513688  0.5381777716537357  0.6107342353494616
  0.3128017685856079  0.4666624658734762  0.5919408509866031
  0.3254298839151630  0.4932149213158468  0.6511403057297969
  0.3735928542774118  0.5285931976965799  0.6621892736635360
  0.3866749241502561  0.5572623952331952  0.7248245359486489
  0.4356983497019087  0.6055931076917673  0.7249644253378449
  0.1678894579973189  0.4667831917461953  0.5693731052453543
  0.1418707448605190  0.5352589562489669  0.5754664495022723
  0.1596189879171632  0.5247751542955825  0.6338547931988003
  0.1739670481809767  0.4910376572698354  0.6295232148503800
  0.1404292555044577  0.5802854961099371  0.5725508114822517
  0.1627373997992549  0.6737815743705724  0.5553782059342254
  0.1697400576906603  0.6596545242557639  0.6181320804998478
  0.1570463399735686  0.6119736390131010  0.6281164913496724
  0.1648090246456348  0.5973531866642290  0.6950635678261676
  0.1665751361803203  0.5505910753715071  0.6980582297082876
  0.1731690211058421  0.8152834401976108  0.4525055047140256
  0.1782810678908504  0.8884196301813176  0.4153581423759150
  0.2011655398370209  0.8634411549001442  0.4330819584299661
  0.6577269340588643  0.8153747319674167  0.4739741807541193
  0.7522123353601273  0.8621261853770719  0.4305318191387499
  0.7253762501938255  0.8852783830872468  0.4240074665687956
  0.6777137181685973  0.8614431123566675  0.4467653854630171
  0.8046318397613561  0.8886480991193864  0.4151004076619031
  0.9035620116630199  0.9392322338466244  0.3983815181456833
  0.8782541671642363  0.9626348557201041  0.3861429293054712
  0.8281278488543293  0.9372665759342595  0.3937618606006978
  0.8014950274419022  0.9625113534254552  0.3804732163656013
  0.7465613403008362  0.9345288913038416  0.3956707964347785
  0.1775976422808156  0.3346206133387710  0.4734897328240066
  0.1319598366498482  0.2409310646296561  0.4279159322356776
  0.1089555577398400  0.2678023216490431  0.4199436687889460
  0.1321802410674451  0.3150300858794139  0.4438828853997805
  0.1057517479814649  0.1887976767801973  0.4115374235119376
  0.0549260457053293  0.0901547474087110  0.3950689429301235
  0.0319397541046698  0.1155687962058423  0.3807805906012618
  0.0575281386587818  0.1656061523695342  0.3880323528504448
  0.0330125229647109  0.1925322534963314  0.3718944339238845
  0.0604668481499360  0.2470570125913625  0.3888032647550901
  0.3479885785079020  0.8449297895320598  0.5048211313124895
  0.5143900448737284  0.8460727950597615  0.5159848678395562
  0.5186778063098956  0.6415536497567373  0.5486632533094919
  0.3507114459984066  0.4733346396624327  0.5496662532185965
  0.1428774342280121  0.4743737126721399  0.5176675037942857
  0.1381169756475060  0.6374560744686661  0.5069994338250936
  0.9789923467822845  0.9401632600113743  0.3990195058984085
  0.0538984326490066  0.0150070977619094  0.3960809445669611
  0.0536231538537493  0.8665366578491174  0.4151965975785359
  0.9797989547900627  0.0139502642027054  0.3917541105734372
  0.1670180841392508  0.7429211479809865  0.4978151568512530
  0.2434545304802072  0.8164587073515008  0.4950007939069394
  0.2323183715687875  0.7517293912835825  0.5640161641341948
  0.5889573850932877  0.8177928129066743  0.5151413054554652
  0.5915063280980917  0.7459866391375343  0.5288717469867663
  0.5345479649422913  0.7567169408084737  0.5900878512202112
  0.2464764060852147  0.4008532957366953  0.5292627082868577
  0.1737492697816094  0.4021225988020518  0.5159620600678494
  0.2346732098399613  0.4568197501553399  0.5909001981352944
  0.1000458899640293  0.8168552313556887  0.4332763517785310
  0.7321618096146238  0.8166213254120152  0.4531367643685726
  0.8287231021247692  0.8654778783484289  0.4247149304141118
  0.1768834978867275  0.2606031643110356  0.4530750844458282
  0.1286887209700751  0.1646349593519858  0.4225901572817889
  0.3935531215935484  0.8557603586460516  0.5124136802566710
  0.4792176213707151  0.8561119846900951  0.5178631821423778
  0.4832678318487922  0.5958161814352536  0.5569264082683958
  0.3965312145840727  0.5087591873837596  0.5577343067337495
  0.1312507048873286  0.5083417456993828  0.5197967333252009
  0.1284071679212531  0.5923570152835467  0.5144932803412416
  0.9915384963116480  0.8699379021822224  0.4156447727367691
  0.1246988467939829  0.0049151333133892  0.3832524822723542
  0.0994838519977321  0.7551698610748687  0.4612112443712277
  0.6711472611956566  0.7573203477568100  0.4920205189567994
  0.8949535676446985  0.8702285015645472  0.4240665413985738
  0.2352381737713500  0.3209829618823719  0.4948642026228356
  0.1236379290584182  0.0984424109837150  0.4230937679995179
  0.3003527614824648  0.7958367739320451  0.6565850350718208
  0.5059828224812293  0.8003192571401883  0.6719395936635664
  0.5048220931203105  0.6938227606575182  0.6876495671831648
  0.2981966698786280  0.4881783653839875  0.6877189693468111
  0.1910782089028586  0.4852961935166462  0.6725798208955425
  0.1865092803277619  0.6854402462594393  0.6588918755847359
  0.2404972249196646  0.8821271818656058  0.4332396433541987
  0.6571210756683001  0.8794530652067323  0.4443172275245786
  0.8969331810413621  0.0004385904858779  0.3714312608647887
  0.1142025145692784  0.3356039270243301  0.4403312554419898
  0.9943270503409494  0.0971000978895589  0.3647104003876578
  0.3388691982075045  0.8545352549170175  0.4569326344483144
  0.5353767101956564  0.8550828125341567  0.4697629690320824
  0.5413481596305871  0.6495157916299092  0.5042975800497089
  0.3428025725774759  0.4503040509925285  0.5057874490109384
  0.1340215770543693  0.4533060563285147  0.4715907675534439
  0.1282306161435400  0.6462112951404890  0.4590493833962199
  0.2056266201201495  0.0117372926819286  0.3760559631230649
  0.4536917948735635  0.8169014587097863  0.7501607269185726
  0.3647156113627616  0.8116558994364595  0.7432378152929431
  0.3600150132169730  0.5449419254444905  0.7735620696509855
  0.4487396811168054  0.6318393301192415  0.7741000799625226
  0.1710830367949541  0.6212348899718592  0.7455369759839598
  0.1748948757248527  0.5371756696340384  0.7508423368563228
  0.2519998527666729  0.9599789947440769  0.3867386862192106
  0.8212388991255324  0.0037729829011752  0.3591037968660515
  0.7226570252729090  0.9532709352800595  0.3849819409368322
  0.9927446358155194  0.1733559990637588  0.3468124938677803
  0.0418731138983688  0.2709585608201905  0.3771159709086120
 
  0.00000000E+00  0.00000000E+00  0.00000000E+00
  0.00000000E+00  0.00000000E+00  0.00000000E+00
  0.00000000E+00  0.00000000E+00  0.00000000E+00
  0.00000000E+00  0.00000000E+00  0.00000000E+00
  0.00000000E+00  0.00000000E+00  0.00000000E+00
  0.00000000E+00  0.00000000E+00  0.00000000E+00
  0.00000000E+00  0.00000000E+00  0.00000000E+00
  0.00000000E+00  0.00000000E+00  0.00000000E+00
  0.00000000E+00  0.00000000E+00  0.00000000E+00
  0.00000000E+00  0.00000000E+00  0.00000000E+00
  0.00000000E+00  0.00000000E+00  0.00000000E+00
  0.00000000E+00  0.00000000E+00  0.00000000E+00
  0.00000000E+00  0.00000000E+00  0.00000000E+00
  0.00000000E+00  0.00000000E+00  0.00000000E+00
  0.00000000E+00  0.00000000E+00  0.00000000E+00
  0.00000000E+00  0.00000000E+00  0.00000000E+00
  0.00000000E+00  0.00000000E+00  0.00000000E+00
  0.00000000E+00  0.00000000E+00  0.00000000E+00
  0.00000000E+00  0.00000000E+00  0.00000000E+00
  0.00000000E+00  0.00000000E+00  0.00000000E+00
  0.00000000E+00  0.00000000E+00  0.00000000E+00
  0.00000000E+00  0.00000000E+00  0.00000000E+00
  0.00000000E+00  0.00000000E+00  0.00000000E+00
  0.00000000E+00  0.00000000E+00  0.00000000E+00
  0.00000000E+00  0.00000000E+00  0.00000000E+00
  0.00000000E+00  0.00000000E+00  0.00000000E+00
  0.00000000E+00  0.00000000E+00  0.00000000E+00
  0.00000000E+00  0.00000000E+00  0.00000000E+00
  0.00000000E+00  0.00000000E+00  0.00000000E+00
  0.00000000E+00  0.00000000E+00  0.00000000E+00
  0.00000000E+00  0.00000000E+00  0.00000000E+00
  0.00000000E+00  0.00000000E+00  0.00000000E+00
  0.00000000E+00  0.00000000E+00  0.00000000E+00
  0.00000000E+00  0.00000000E+00  0.00000000E+00
  0.00000000E+00  0.00000000E+00  0.00000000E+00
  0.00000000E+00  0.00000000E+00  0.00000000E+00
  0.00000000E+00  0.00000000E+00  0.00000000E+00
  0.00000000E+00  0.00000000E+00  0.00000000E+00
  0.00000000E+00  0.00000000E+00  0.00000000E+00
  0.00000000E+00  0.00000000E+00  0.00000000E+00
  0.00000000E+00  0.00000000E+00  0.00000000E+00
  0.00000000E+00  0.00000000E+00  0.00000000E+00
  0.00000000E+00  0.00000000E+00  0.00000000E+00
  0.00000000E+00  0.00000000E+00  0.00000000E+00
  0.00000000E+00  0.00000000E+00  0.00000000E+00
  0.00000000E+00  0.00000000E+00  0.00000000E+00
  0.00000000E+00  0.00000000E+00  0.00000000E+00
  0.00000000E+00  0.00000000E+00  0.00000000E+00
  0.00000000E+00  0.00000000E+00  0.00000000E+00
  0.00000000E+00  0.00000000E+00  0.00000000E+00
  0.00000000E+00  0.00000000E+00  0.00000000E+00
  0.00000000E+00  0.00000000E+00  0.00000000E+00
  0.00000000E+00  0.00000000E+00  0.00000000E+00
  0.00000000E+00  0.00000000E+00  0.00000000E+00
  0.00000000E+00  0.00000000E+00  0.00000000E+00
  0.00000000E+00  0.00000000E+00  0.00000000E+00
  0.00000000E+00  0.00000000E+00  0.00000000E+00
  0.00000000E+00  0.00000000E+00  0.00000000E+00
  0.00000000E+00  0.00000000E+00  0.00000000E+00
  0.00000000E+00  0.00000000E+00  0.00000000E+00
  0.00000000E+00  0.00000000E+00  0.00000000E+00
  0.00000000E+00  0.00000000E+00  0.00000000E+00
  0.00000000E+00  0.00000000E+00  0.00000000E+00
  0.00000000E+00  0.00000000E+00  0.00000000E+00
  0.00000000E+00  0.00000000E+00  0.00000000E+00
  0.00000000E+00  0.00000000E+00  0.00000000E+00
  0.00000000E+00  0.00000000E+00  0.00000000E+00
  0.00000000E+00  0.00000000E+00  0.00000000E+00
  0.00000000E+00  0.00000000E+00  0.00000000E+00
  0.00000000E+00  0.00000000E+00  0.00000000E+00
  0.00000000E+00  0.00000000E+00  0.00000000E+00
  0.00000000E+00  0.00000000E+00  0.00000000E+00
  0.00000000E+00  0.00000000E+00  0.00000000E+00
  0.00000000E+00  0.00000000E+00  0.00000000E+00
  0.00000000E+00  0.00000000E+00  0.00000000E+00
  0.00000000E+00  0.00000000E+00  0.00000000E+00
  0.00000000E+00  0.00000000E+00  0.00000000E+00
  0.00000000E+00  0.00000000E+00  0.00000000E+00
  0.00000000E+00  0.00000000E+00  0.00000000E+00
  0.00000000E+00  0.00000000E+00  0.00000000E+00
  0.00000000E+00  0.00000000E+00  0.00000000E+00
  0.00000000E+00  0.00000000E+00  0.00000000E+00
  0.00000000E+00  0.00000000E+00  0.00000000E+00
  0.00000000E+00  0.00000000E+00  0.00000000E+00
  0.00000000E+00  0.00000000E+00  0.00000000E+00
  0.00000000E+00  0.00000000E+00  0.00000000E+00
  0.00000000E+00  0.00000000E+00  0.00000000E+00
  0.00000000E+00  0.00000000E+00  0.00000000E+00
  0.00000000E+00  0.00000000E+00  0.00000000E+00
  0.00000000E+00  0.00000000E+00  0.00000000E+00
  0.00000000E+00  0.00000000E+00  0.00000000E+00
  0.00000000E+00  0.00000000E+00  0.00000000E+00
  0.00000000E+00  0.00000000E+00  0.00000000E+00
  0.00000000E+00  0.00000000E+00  0.00000000E+00
  0.00000000E+00  0.00000000E+00  0.00000000E+00
  0.00000000E+00  0.00000000E+00  0.00000000E+00
  0.00000000E+00  0.00000000E+00  0.00000000E+00
  0.00000000E+00  0.00000000E+00  0.00000000E+00
  0.00000000E+00  0.00000000E+00  0.00000000E+00
  0.00000000E+00  0.00000000E+00  0.00000000E+00
  0.00000000E+00  0.00000000E+00  0.00000000E+00
  0.00000000E+00  0.00000000E+00  0.00000000E+00
  0.00000000E+00  0.00000000E+00  0.00000000E+00
  0.00000000E+00  0.00000000E+00  0.00000000E+00
  0.00000000E+00  0.00000000E+00  0.00000000E+00
  0.00000000E+00  0.00000000E+00  0.00000000E+00
  0.00000000E+00  0.00000000E+00  0.00000000E+00
  0.00000000E+00  0.00000000E+00  0.00000000E+00
  0.00000000E+00  0.00000000E+00  0.00000000E+00
  0.00000000E+00  0.00000000E+00  0.00000000E+00
  0.00000000E+00  0.00000000E+00  0.00000000E+00
  0.00000000E+00  0.00000000E+00  0.00000000E+00
  0.00000000E+00  0.00000000E+00  0.00000000E+00
  0.00000000E+00  0.00000000E+00  0.00000000E+00
  0.00000000E+00  0.00000000E+00  0.00000000E+00
  0.00000000E+00  0.00000000E+00  0.00000000E+00
  0.00000000E+00  0.00000000E+00  0.00000000E+00
  0.00000000E+00  0.00000000E+00  0.00000000E+00
  0.00000000E+00  0.00000000E+00  0.00000000E+00
  0.00000000E+00  0.00000000E+00  0.00000000E+00
  0.00000000E+00  0.00000000E+00  0.00000000E+00
  0.00000000E+00  0.00000000E+00  0.00000000E+00
  0.00000000E+00  0.00000000E+00  0.00000000E+00
  0.00000000E+00  0.00000000E+00  0.00000000E+00
  0.00000000E+00  0.00000000E+00  0.00000000E+00
  0.00000000E+00  0.00000000E+00  0.00000000E+00
  0.00000000E+00  0.00000000E+00  0.00000000E+00
  0.00000000E+00  0.00000000E+00  0.00000000E+00
  0.00000000E+00  0.00000000E+00  0.00000000E+00
  0.00000000E+00  0.00000000E+00  0.00000000E+00
  0.00000000E+00  0.00000000E+00  0.00000000E+00
  0.00000000E+00  0.00000000E+00  0.00000000E+00
  0.00000000E+00  0.00000000E+00  0.00000000E+00
  0.00000000E+00  0.00000000E+00  0.00000000E+00
  0.00000000E+00  0.00000000E+00  0.00000000E+00
  0.00000000E+00  0.00000000E+00  0.00000000E+00
  0.00000000E+00  0.00000000E+00  0.00000000E+00
  0.00000000E+00  0.00000000E+00  0.00000000E+00
  0.00000000E+00  0.00000000E+00  0.00000000E+00
  0.00000000E+00  0.00000000E+00  0.00000000E+00
  0.00000000E+00  0.00000000E+00  0.00000000E+00
  0.00000000E+00  0.00000000E+00  0.00000000E+00
  0.00000000E+00  0.00000000E+00  0.00000000E+00
  0.00000000E+00  0.00000000E+00  0.00000000E+00
