Primitive Cell                          
   1.00000000000000     
    29.6239118524300409    0.0219378455069975    0.0000000000000000
   -14.7928662157456507   25.6649651206777243    0.0000000000000000
     0.0000000000000000    0.0000000000000000   20.0000000000000000
   C    H    N    O 
    60    39     9     6
Direct
  0.3636836941634272  0.7212122201077236  0.4977218144200322
  0.3869286144872817  0.6901689270286084  0.4975060829141285
  0.3561206428542150  0.6355301311921053  0.4978316990164231
  0.3018973977637387  0.6123444435752390  0.4971693851152850
  0.2780513277822081  0.6432220763433278  0.4973753755639834
  0.3090368937952164  0.6974475640875042  0.4971551340821634
  0.3801071911942770  0.6025412212963914  0.5004548530151922
  0.2211209025860299  0.6193421953169249  0.4994987448866581
  0.3967095958774252  0.7781102870351404  0.5001508468401070
  0.6332566038283360  0.2785656573889241  0.4897100490777362
  0.6120376124622737  0.3114280308263560  0.4892311822944890
  0.6446101747160782  0.3659298687094861  0.4893152189227976
  0.6986226306298420  0.3870738822968889  0.4888694195345025
  0.7205545924762333  0.3544321446674843  0.4893387683186674
  0.6877679215941228  0.3004260995681847  0.4892952007577449
  0.6229609904395872  0.4008611277538918  0.4928360357361399
  0.7770679245015231  0.3760473671514859  0.4928135133086258
  0.5984194216115952  0.2220791719618944  0.4934774960728134
  0.4112637500913365  0.8617255688654311  0.5195507376771644
  0.4237725563262984  0.8887165429349011  0.5803518421274632
  0.4545707564273798  0.9426644432286579  0.5799984879252804
  0.4745684022332313  0.9723404556204684  0.5211990293566160
  0.5113671669504711  0.0287737498900995  0.5186800511845320
  0.5489097572537815  0.0554650569830955  0.5685838691191378
  0.5835859512861390  0.1085125596950718  0.5636902384875455
  0.4491288256512291  0.5879680176277731  0.5199304708643311
  0.4633789950236391  0.5750894986927619  0.5806684754514322
  0.4864781192406440  0.5441643426284415  0.5801268606150956
  0.4963655419691406  0.5244224041710766  0.5212067650080456
  0.5161667396353451  0.4876824672835696  0.5184665486651667
  0.5054481634082748  0.4500212826629877  0.5681909219947769
  0.5240780101328752  0.4154974960409277  0.5631591046373430
  0.1375356815283482  0.5500826939047201  0.5182026413502143
  0.1105875793064826  0.5357446770279140  0.5790355923015653
  0.0566185289500183  0.5125018479145211  0.5787057966311266
  0.0269009341976911  0.5025843330883148  0.5198995246587188
  0.9704313368639248  0.4828451703260868  0.5173908199932029
  0.9436723092902994  0.4939123094043438  0.5670356641724794
  0.8905677924797217  0.4753379085010110  0.5621881366977917
  0.4586953570149674  0.9443839961549116  0.4601538417370250
  0.4283102404621175  0.8902144959283405  0.4597272088161120
  0.5805138452041305  0.1370576780454016  0.5093969360788080
  0.5445622224872722  0.1103070403263047  0.4579411758636027
  0.5110245245284730  0.0566622592236499  0.4614463806131255
  0.4750879511755883  0.0264730333769734  0.4046473020007539
  0.4751205930440676  0.9750736588501638  0.3957953279784903
  0.4843982185445626  0.5405621879190363  0.4602655318889433
  0.4606810449287053  0.5710785321090412  0.4600248615364890
  0.5557804014325214  0.4187930520234104  0.5088714960287390
  0.5648310273972044  0.4548289784047910  0.4575547815055288
  0.5445132793800909  0.4882604300773963  0.4612293637328975
  0.5501585821888142  0.5243191426314482  0.4045866906869904
  0.4987196602371924  0.5242780951799446  0.3958106534826555
  0.0548194330635710  0.5144657325317183  0.4588423558460448
  0.1090025903049252  0.5383301077557618  0.4583784142472069
  0.8620465467278109  0.4433162747359134  0.5082160316690221
  0.8888603681331730  0.4339170205645217  0.4569737445130357
  0.9425627813093627  0.4542286567011118  0.4604125851406451
  0.9728574045056959  0.4483454087237746  0.4037994859701257
  0.0240228913173368  0.4998343276236170  0.3945628303617994
  0.2772447066910360  0.5700075029360860  0.4973485751753088
  0.2913563848437803  0.7221577986685901  0.4973289558581584
  0.4292619191834817  0.7077905825536632  0.4979378217916874
  0.4380629669454521  0.7941043985042029  0.4863038303046707
  0.2050723520408937  0.6447819525023917  0.4860835861696415
  0.3549392420317403  0.5611706509068028  0.4866066619559035
  0.7246688987134675  0.4292040204972452  0.4895033755016129
  0.7038724035733566  0.2743471965403828  0.4902371395156351
  0.5699034214989283  0.2954013963016209  0.4901038323809459
  0.5564253838514261  0.2080707250655180  0.4865389488605061
  0.7911501777053687  0.3480646435614787  0.4860895873854858
  0.6508952986727294  0.4428231764342314  0.4857187277625741
  0.5521157616462062  0.0343267299022330  0.6112549332621882
  0.6130438456179306  0.1289089985845848  0.6020102088043657
  0.4093986048142213  0.8679224006742103  0.6274220873958143
  0.4810122048718384  0.4465867553586094  0.6108434692532896
  0.5151524424483043  0.3859689391542886  0.6013532980247760
  0.4567910965433128  0.5892339838902814  0.6278398444342344
  0.9647917414656320  0.5185551295306539  0.6094660676128711
  0.8701088714200012  0.4845454445062600  0.6003083688335735
  0.1314146265558946  0.5423110209800299  0.6261159633419950
  0.4164391908301823  0.8694281300010474  0.4121555867588356
  0.5443639691855964  0.1317337310950890  0.4135968142153388
  0.4350482360678711  0.0179364681752929  0.4156753193758149
  0.4873617862907693  0.0495986804379029  0.3584215429427644
  0.4489533284080167  0.9516979883406904  0.3550701920342973
  0.5147297727738334  0.9836759831495883  0.3819120018434603
  0.4518739188262728  0.5831569189518504  0.4125135325818761
  0.5864949245748363  0.4551840916550560  0.4131653229975640
  0.5815299474615543  0.5643452587173314  0.4157446607260198
  0.5610716654112835  0.5121602707076320  0.3582881390803223
  0.5014407907292693  0.5505183754424436  0.3551846523165096
  0.4678244025617673  0.4846856388183127  0.3818355636990489
  0.1297798609763277  0.5470767817869984  0.4108088689373517
  0.8674504247556669  0.4119878705164552  0.4128118753722632
  0.9817526177127291  0.4171252711077287  0.4152360224326017
  0.9496748079241684  0.4371249902075149  0.3576130818015884
  0.0474354370459125  0.4970179069425598  0.3538581484582650
  0.0150916544673763  0.5306070476998741  0.3804858818624410
  0.4618212324061375  0.9677523207561123  0.6462068255399203
  0.3789932540083996  0.8075165758811167  0.5195342000567820
  0.5039907620643049  0.5364077300676513  0.6463158735253032
  0.4271767004846296  0.6203315896415162  0.5199740562482731
  0.0315502665220748  0.4948673071483896  0.6449401332202811
  0.1917738450122712  0.5720982304902051  0.5181647055546676
  0.6152123479738734  0.1906665004549026  0.5071840957540488
  0.5748294247094989  0.3841513535586643  0.5066110944866082
  0.8083921234836424  0.4242638983623337  0.5060949868549116
  0.4770047667999577  0.9508729971068135  0.6927163570597301
  0.4506462471078763  0.0026877033297765  0.6511572283627629
  0.4717507757403752  0.5208837955601666  0.6925853608258521
  0.5500386609788706  0.5474990035886407  0.6514790937061008
  0.0487289085344003  0.5268693492722321  0.6914533716342817
  0.9963016026379208  0.4489774422877773  0.6499213740843004
 
  0.00000000E+00  0.00000000E+00  0.00000000E+00
  0.00000000E+00  0.00000000E+00  0.00000000E+00
  0.00000000E+00  0.00000000E+00  0.00000000E+00
  0.00000000E+00  0.00000000E+00  0.00000000E+00
  0.00000000E+00  0.00000000E+00  0.00000000E+00
  0.00000000E+00  0.00000000E+00  0.00000000E+00
  0.00000000E+00  0.00000000E+00  0.00000000E+00
  0.00000000E+00  0.00000000E+00  0.00000000E+00
  0.00000000E+00  0.00000000E+00  0.00000000E+00
  0.00000000E+00  0.00000000E+00  0.00000000E+00
  0.00000000E+00  0.00000000E+00  0.00000000E+00
  0.00000000E+00  0.00000000E+00  0.00000000E+00
  0.00000000E+00  0.00000000E+00  0.00000000E+00
  0.00000000E+00  0.00000000E+00  0.00000000E+00
  0.00000000E+00  0.00000000E+00  0.00000000E+00
  0.00000000E+00  0.00000000E+00  0.00000000E+00
  0.00000000E+00  0.00000000E+00  0.00000000E+00
  0.00000000E+00  0.00000000E+00  0.00000000E+00
  0.00000000E+00  0.00000000E+00  0.00000000E+00
  0.00000000E+00  0.00000000E+00  0.00000000E+00
  0.00000000E+00  0.00000000E+00  0.00000000E+00
  0.00000000E+00  0.00000000E+00  0.00000000E+00
  0.00000000E+00  0.00000000E+00  0.00000000E+00
  0.00000000E+00  0.00000000E+00  0.00000000E+00
  0.00000000E+00  0.00000000E+00  0.00000000E+00
  0.00000000E+00  0.00000000E+00  0.00000000E+00
  0.00000000E+00  0.00000000E+00  0.00000000E+00
  0.00000000E+00  0.00000000E+00  0.00000000E+00
  0.00000000E+00  0.00000000E+00  0.00000000E+00
  0.00000000E+00  0.00000000E+00  0.00000000E+00
  0.00000000E+00  0.00000000E+00  0.00000000E+00
  0.00000000E+00  0.00000000E+00  0.00000000E+00
  0.00000000E+00  0.00000000E+00  0.00000000E+00
  0.00000000E+00  0.00000000E+00  0.00000000E+00
  0.00000000E+00  0.00000000E+00  0.00000000E+00
  0.00000000E+00  0.00000000E+00  0.00000000E+00
  0.00000000E+00  0.00000000E+00  0.00000000E+00
  0.00000000E+00  0.00000000E+00  0.00000000E+00
  0.00000000E+00  0.00000000E+00  0.00000000E+00
  0.00000000E+00  0.00000000E+00  0.00000000E+00
  0.00000000E+00  0.00000000E+00  0.00000000E+00
  0.00000000E+00  0.00000000E+00  0.00000000E+00
  0.00000000E+00  0.00000000E+00  0.00000000E+00
  0.00000000E+00  0.00000000E+00  0.00000000E+00
  0.00000000E+00  0.00000000E+00  0.00000000E+00
  0.00000000E+00  0.00000000E+00  0.00000000E+00
  0.00000000E+00  0.00000000E+00  0.00000000E+00
  0.00000000E+00  0.00000000E+00  0.00000000E+00
  0.00000000E+00  0.00000000E+00  0.00000000E+00
  0.00000000E+00  0.00000000E+00  0.00000000E+00
  0.00000000E+00  0.00000000E+00  0.00000000E+00
  0.00000000E+00  0.00000000E+00  0.00000000E+00
  0.00000000E+00  0.00000000E+00  0.00000000E+00
  0.00000000E+00  0.00000000E+00  0.00000000E+00
  0.00000000E+00  0.00000000E+00  0.00000000E+00
  0.00000000E+00  0.00000000E+00  0.00000000E+00
  0.00000000E+00  0.00000000E+00  0.00000000E+00
  0.00000000E+00  0.00000000E+00  0.00000000E+00
  0.00000000E+00  0.00000000E+00  0.00000000E+00
  0.00000000E+00  0.00000000E+00  0.00000000E+00
  0.00000000E+00  0.00000000E+00  0.00000000E+00
  0.00000000E+00  0.00000000E+00  0.00000000E+00
  0.00000000E+00  0.00000000E+00  0.00000000E+00
  0.00000000E+00  0.00000000E+00  0.00000000E+00
  0.00000000E+00  0.00000000E+00  0.00000000E+00
  0.00000000E+00  0.00000000E+00  0.00000000E+00
  0.00000000E+00  0.00000000E+00  0.00000000E+00
  0.00000000E+00  0.00000000E+00  0.00000000E+00
  0.00000000E+00  0.00000000E+00  0.00000000E+00
  0.00000000E+00  0.00000000E+00  0.00000000E+00
  0.00000000E+00  0.00000000E+00  0.00000000E+00
  0.00000000E+00  0.00000000E+00  0.00000000E+00
  0.00000000E+00  0.00000000E+00  0.00000000E+00
  0.00000000E+00  0.00000000E+00  0.00000000E+00
  0.00000000E+00  0.00000000E+00  0.00000000E+00
  0.00000000E+00  0.00000000E+00  0.00000000E+00
  0.00000000E+00  0.00000000E+00  0.00000000E+00
  0.00000000E+00  0.00000000E+00  0.00000000E+00
  0.00000000E+00  0.00000000E+00  0.00000000E+00
  0.00000000E+00  0.00000000E+00  0.00000000E+00
  0.00000000E+00  0.00000000E+00  0.00000000E+00
  0.00000000E+00  0.00000000E+00  0.00000000E+00
  0.00000000E+00  0.00000000E+00  0.00000000E+00
  0.00000000E+00  0.00000000E+00  0.00000000E+00
  0.00000000E+00  0.00000000E+00  0.00000000E+00
  0.00000000E+00  0.00000000E+00  0.00000000E+00
  0.00000000E+00  0.00000000E+00  0.00000000E+00
  0.00000000E+00  0.00000000E+00  0.00000000E+00
  0.00000000E+00  0.00000000E+00  0.00000000E+00
  0.00000000E+00  0.00000000E+00  0.00000000E+00
  0.00000000E+00  0.00000000E+00  0.00000000E+00
  0.00000000E+00  0.00000000E+00  0.00000000E+00
  0.00000000E+00  0.00000000E+00  0.00000000E+00
  0.00000000E+00  0.00000000E+00  0.00000000E+00
  0.00000000E+00  0.00000000E+00  0.00000000E+00
  0.00000000E+00  0.00000000E+00  0.00000000E+00
  0.00000000E+00  0.00000000E+00  0.00000000E+00
  0.00000000E+00  0.00000000E+00  0.00000000E+00
  0.00000000E+00  0.00000000E+00  0.00000000E+00
  0.00000000E+00  0.00000000E+00  0.00000000E+00
  0.00000000E+00  0.00000000E+00  0.00000000E+00
  0.00000000E+00  0.00000000E+00  0.00000000E+00
  0.00000000E+00  0.00000000E+00  0.00000000E+00
  0.00000000E+00  0.00000000E+00  0.00000000E+00
  0.00000000E+00  0.00000000E+00  0.00000000E+00
  0.00000000E+00  0.00000000E+00  0.00000000E+00
  0.00000000E+00  0.00000000E+00  0.00000000E+00
  0.00000000E+00  0.00000000E+00  0.00000000E+00
  0.00000000E+00  0.00000000E+00  0.00000000E+00
  0.00000000E+00  0.00000000E+00  0.00000000E+00
  0.00000000E+00  0.00000000E+00  0.00000000E+00
  0.00000000E+00  0.00000000E+00  0.00000000E+00
  0.00000000E+00  0.00000000E+00  0.00000000E+00
  0.00000000E+00  0.00000000E+00  0.00000000E+00
