Primitive Cell                          
   1.00000000000000     
    21.8211631464045404   -0.0119755407443220    0.0000000000000000
   -10.9202440134267587   18.8801934740015831    0.0000000000000000
     0.0000000000000000    0.0000000000000000   20.0000000000000000
   C    N    H    O 
    27    18    12    12
Direct
  0.7277219225255394  0.3828016035181037  0.5071133884906303
  0.6094211184386182  0.3390142864851882  0.5045954961573216
  0.8029544842409919  0.4457265855656942  0.5106786416984264
  0.5463433332514924  0.3510115420651161  0.5049090288054856
  0.6408887485799397  0.1892361573960670  0.5097134750402645
  0.2645200343883261  0.6099767451007665  0.5245865147140734
  0.3814759928767657  0.6475457413219203  0.5225627201998080
  0.1880482854369134  0.5487927362141534  0.5223084636463184
  0.4424884101342954  0.6322268988089661  0.5186998451687188
  0.3595147908743499  0.8035107668280972  0.5225046232152053
  0.4568034519209832  0.5262691774427424  0.5166232565196651
  0.4245538205775219  0.4525486846211493  0.5300230811342388
  0.3485983279188645  0.4066457788882332  0.5505763778448269
  0.0676004908324188  0.5340253382977664  0.5245417462943749
  0.0262630144470108  0.5655185245512087  0.5413473073651431
  0.0566952771536577  0.6402575123291996  0.5659510595728321
  0.4654160529260238  0.9240070569618624  0.5219395913924245
  0.5384287337738769  0.9657759944409605  0.5381156971254484
  0.5832549493609562  0.9358780430579117  0.5622668960649335
  0.6529677785152401  0.2643543539147828  0.5067205996872062
  0.3440816648718510  0.7270160935492811  0.5249286503400086
  0.5606940751385352  0.5286824799279088  0.4933030524711057
  0.5290294993669917  0.4555484465722444  0.5075664226024017
  0.9658685236657831  0.4313753265681299  0.4982274363992829
  0.9245551676610262  0.4624043711680272  0.5153080554111327
  0.4639039839778434  0.0253574321089118  0.4956280557742545
  0.5363492242324597  0.0671273029955586  0.5124654331581056
  0.7198792111493262  0.3176759230059929  0.5073961685207422
  0.6745271106604491  0.3964749611028466  0.5054548138075248
  0.5956536823439151  0.2720428649286859  0.5051356312765520
  0.2757810559503611  0.6762059363500015  0.5260234113069444
  0.3152265488840698  0.5924983137419417  0.5228102843962716
  0.3990683492712392  0.7158350191042118  0.5236489709543619
  0.4612021530280401  0.4187115535013319  0.5253996953333129
  0.4177877522281292  0.5598690127858177  0.5217947541468462
  0.9556816566494390  0.5291730095307088  0.5365550482581796
  0.1403325826785178  0.5729734755504978  0.5292072809940862
  0.5724605115966952  0.0363673372942799  0.5331227119470512
  0.4317323089306413  0.8512693565751519  0.5270177832420941
  0.5252094753652088  0.5629965237455608  0.4976930301987181
  0.5692791998690723  0.4224378537950813  0.5037576713680849
  0.0357353580119408  0.4665256098542443  0.5027025387385748
  0.8511488486913166  0.4224824232835118  0.5105613888847742
  0.4294829471113815  0.9554674285453686  0.5001336190715122
  0.5694960270080287  0.1405709526611716  0.5080804160309498
  0.3721455460547318  0.3346930328304794  0.5500126992221723
  0.3644707660460327  0.5266917905609247  0.5315238362049186
  0.9612541506655390  0.6169390452295858  0.5675413937028466
  0.1605334387631245  0.6259073337172865  0.5407940227594423
  0.6552348621273723  0.0315042296445327  0.5625198308041490
  0.4646584059403622  0.8312581397614522  0.5380883169542301
  0.6161817383094075  0.5594318708627952  0.4776177631429519
  0.6231916686358261  0.4538753972386189  0.5008982602998628
  0.9408857469337093  0.3766787022289009  0.4800847244933593
  0.8284116320060804  0.3686465773472989  0.5060885873264311
  0.4338698491757427  0.0499791198696400  0.4776119223899471
  0.5381882256481276  0.1629326800448467  0.5030050789325031
  0.4851859615859979  0.3017296489992560  0.5064602825915330
  0.6900870064112326  0.1774890830362068  0.5134133157475915
  0.8151448211366557  0.5069170818136470  0.5134582526907323
  0.5037797018884689  0.6798016167303018  0.5132822467443958
  0.3121405268298147  0.8173445164278306  0.5166833091391538
  0.1742849664582877  0.4877566766271073  0.5146440245181623
  0.3077923403029530  0.4292931411281771  0.5583709989809620
  0.3294255307945093  0.3383549717103378  0.5598609870237112
  0.1203162206946473  0.6806642275430974  0.5738848482321401
  0.0078212764450001  0.6589151179110004  0.5787381238751266
  0.5602064546113468  0.8723869971736278  0.5709482282768690
  0.6510462260189911  0.9851404655066816  0.5737681385266100
 
  0.00000000E+00  0.00000000E+00  0.00000000E+00
  0.00000000E+00  0.00000000E+00  0.00000000E+00
  0.00000000E+00  0.00000000E+00  0.00000000E+00
  0.00000000E+00  0.00000000E+00  0.00000000E+00
  0.00000000E+00  0.00000000E+00  0.00000000E+00
  0.00000000E+00  0.00000000E+00  0.00000000E+00
  0.00000000E+00  0.00000000E+00  0.00000000E+00
  0.00000000E+00  0.00000000E+00  0.00000000E+00
  0.00000000E+00  0.00000000E+00  0.00000000E+00
  0.00000000E+00  0.00000000E+00  0.00000000E+00
  0.00000000E+00  0.00000000E+00  0.00000000E+00
  0.00000000E+00  0.00000000E+00  0.00000000E+00
  0.00000000E+00  0.00000000E+00  0.00000000E+00
  0.00000000E+00  0.00000000E+00  0.00000000E+00
  0.00000000E+00  0.00000000E+00  0.00000000E+00
  0.00000000E+00  0.00000000E+00  0.00000000E+00
  0.00000000E+00  0.00000000E+00  0.00000000E+00
  0.00000000E+00  0.00000000E+00  0.00000000E+00
  0.00000000E+00  0.00000000E+00  0.00000000E+00
  0.00000000E+00  0.00000000E+00  0.00000000E+00
  0.00000000E+00  0.00000000E+00  0.00000000E+00
  0.00000000E+00  0.00000000E+00  0.00000000E+00
  0.00000000E+00  0.00000000E+00  0.00000000E+00
  0.00000000E+00  0.00000000E+00  0.00000000E+00
  0.00000000E+00  0.00000000E+00  0.00000000E+00
  0.00000000E+00  0.00000000E+00  0.00000000E+00
  0.00000000E+00  0.00000000E+00  0.00000000E+00
  0.00000000E+00  0.00000000E+00  0.00000000E+00
  0.00000000E+00  0.00000000E+00  0.00000000E+00
  0.00000000E+00  0.00000000E+00  0.00000000E+00
  0.00000000E+00  0.00000000E+00  0.00000000E+00
  0.00000000E+00  0.00000000E+00  0.00000000E+00
  0.00000000E+00  0.00000000E+00  0.00000000E+00
  0.00000000E+00  0.00000000E+00  0.00000000E+00
  0.00000000E+00  0.00000000E+00  0.00000000E+00
  0.00000000E+00  0.00000000E+00  0.00000000E+00
  0.00000000E+00  0.00000000E+00  0.00000000E+00
  0.00000000E+00  0.00000000E+00  0.00000000E+00
  0.00000000E+00  0.00000000E+00  0.00000000E+00
  0.00000000E+00  0.00000000E+00  0.00000000E+00
  0.00000000E+00  0.00000000E+00  0.00000000E+00
  0.00000000E+00  0.00000000E+00  0.00000000E+00
  0.00000000E+00  0.00000000E+00  0.00000000E+00
  0.00000000E+00  0.00000000E+00  0.00000000E+00
  0.00000000E+00  0.00000000E+00  0.00000000E+00
  0.00000000E+00  0.00000000E+00  0.00000000E+00
  0.00000000E+00  0.00000000E+00  0.00000000E+00
  0.00000000E+00  0.00000000E+00  0.00000000E+00
  0.00000000E+00  0.00000000E+00  0.00000000E+00
  0.00000000E+00  0.00000000E+00  0.00000000E+00
  0.00000000E+00  0.00000000E+00  0.00000000E+00
  0.00000000E+00  0.00000000E+00  0.00000000E+00
  0.00000000E+00  0.00000000E+00  0.00000000E+00
  0.00000000E+00  0.00000000E+00  0.00000000E+00
  0.00000000E+00  0.00000000E+00  0.00000000E+00
  0.00000000E+00  0.00000000E+00  0.00000000E+00
  0.00000000E+00  0.00000000E+00  0.00000000E+00
  0.00000000E+00  0.00000000E+00  0.00000000E+00
  0.00000000E+00  0.00000000E+00  0.00000000E+00
  0.00000000E+00  0.00000000E+00  0.00000000E+00
  0.00000000E+00  0.00000000E+00  0.00000000E+00
  0.00000000E+00  0.00000000E+00  0.00000000E+00
  0.00000000E+00  0.00000000E+00  0.00000000E+00
  0.00000000E+00  0.00000000E+00  0.00000000E+00
  0.00000000E+00  0.00000000E+00  0.00000000E+00
  0.00000000E+00  0.00000000E+00  0.00000000E+00
  0.00000000E+00  0.00000000E+00  0.00000000E+00
  0.00000000E+00  0.00000000E+00  0.00000000E+00
  0.00000000E+00  0.00000000E+00  0.00000000E+00
