Primitive Cell                          
   1.00000000000000     
    21.9560416126746141   -0.0079087349938561    0.0000000000000000
   -10.9804598990667444   19.0378198950980710    0.0000000000000000
     0.0000000000000000    0.0000000000000000   20.0000000000000000
   H    N    C 
    12    24    36
Direct
  0.0858405117810079  0.9024778026812115  0.6232511853681686
  0.3855802228321679  0.8413723073187356  0.6219839591228435
  0.1501248186679547  0.5034572178558676  0.6221006771727460
  0.0881913348315635  0.9040519330856540  0.4070028742708161
  0.3846691711678787  0.8391328383072079  0.4062749531573644
  0.1497177392220124  0.5030511126603230  0.4063384020322616
  0.4869316876294647  0.6047292146634149  0.6229423666695197
  0.4866753115205285  0.6057507210450339  0.4072598745763258
  0.8483462364709098  0.9026196232071513  0.6231490143645502
  0.0867727439990844  0.1421722379856760  0.6217523546270911
  0.8480190304529529  0.9030087221995160  0.4068607810604306
  0.0867998404166670  0.1421306306922858  0.4054354286018338
  0.1340032655847736  0.8539022036908221  0.5753894439050526
  0.2578558748703443  0.7278774920215625  0.5131725839044279
  0.6103883332568429  0.8402314365920986  0.5150643048054278
  0.2619288070226418  0.4881636453992186  0.5150884527064434
  0.4687588869049151  0.8400742181404866  0.5739092277897910
  0.1508298220815476  0.5874268218507410  0.5738250771389986
  0.9711571583692944  0.9103661937849807  0.5158341858321691
  0.0800021654705247  0.0190951245491817  0.5136837228676470
  0.1494839971943804  0.7279056209863342  0.5155144409398247
  0.2595489896405994  0.8368673304154512  0.5154583969986817
  0.1352901086741838  0.8547880522765468  0.4554876927501255
  0.5018802325264105  0.7322575927771879  0.5146606291327771
  0.1527082785282374  0.3809740095637935  0.5135966352577199
  0.4682942816045426  0.8388745342645976  0.4544541548441856
  0.1505376577215287  0.5872217151155041  0.4543569628341757
  0.2617366973856150  0.3798690593763254  0.5138536313081943
  0.4027370937727426  0.5215107217455568  0.5746497155707502
  0.6090670465329922  0.7301070249677721  0.5154231644949974
  0.4025037220593504  0.5221887792575757  0.4551639894902166
  0.7516918189762052  0.8547050944881320  0.5750764258107282
  0.1353464527845958  0.2385849082808775  0.5735333800947373
  0.9711411038669482  0.0190730972210957  0.5137836732575281
  0.7515077686465048  0.8548275066011115  0.4551435494019458
  0.1352539618082602  0.2385768845057896  0.4536400018856455
  0.0992570826755781  0.8894568672684215  0.5747101654700089
  0.2914879448352110  0.7983921824476354  0.5143026157969359
  0.5401140522488035  0.8025430953516164  0.5146916159971155
  0.4068881717066404  0.8382988602389787  0.5734993196287732
  0.4924650522189964  0.8335485845125490  0.5142927186330439
  0.1525454349507527  0.5274000301828821  0.5735401296573244
  0.1565794139445984  0.6171177987577465  0.5140708926505724
  0.3692702433427399  0.8294026794949048  0.5142034921615064
  0.1604991676036178  0.4981409395923535  0.5142008218860283
  0.0418041935917586  0.9485350944127902  0.5148543509402614
  0.1889415433759041  0.7983550671509363  0.5155989904552811
  0.0807147359502380  0.9094434698814808  0.5151067361217017
  0.1006002195359983  0.8903994540869178  0.4557260868619082
  0.1500080504136392  0.8384839915499214  0.5155507317502313
  0.1874756690648951  0.6956602856913747  0.5142023045761661
  0.1913509648090823  0.4513332281423104  0.5142773866094643
  0.4064037061311723  0.8370144219204718  0.4548232582728744
  0.1522692485658013  0.5271769532225719  0.4548268939485709
  0.2941637287394343  0.4500785289874187  0.5146642677179472
  0.4627763868924504  0.5833525232926462  0.5744108572613200
  0.3728154630897293  0.4978761715348412  0.5148895381049385
  0.6412855240728348  0.8006616082516658  0.5152613778560351
  0.5386614065718476  0.6984836383894262  0.5151801667305804
  0.1912186541530474  0.3488757524655668  0.5136548952449971
  0.7203699720292676  0.8394376123297036  0.5151653134848573
  0.1511138366394249  0.2698245994455135  0.5135761322651433
  0.4625686300604102  0.5839388406890009  0.4557033406394950
  0.4917963214237133  0.6208809154450634  0.5151800127467325
  0.8220221755446460  0.8897743766587638  0.5745400329875352
  0.1000746135566928  0.1683132394155322  0.5730700586002371
  0.0417951762202620  0.0515365911641155  0.5136402878134092
  0.9387019072530549  0.9485036532933009  0.5148594911304372
  0.8606720319013164  0.9094285319405060  0.5149934796648026
  0.0807765353743832  0.1295488324939598  0.5135729826307909
  0.8218385721584056  0.8899948087934106  0.4555394017461651
  0.1000554950774202  0.1683123419289032  0.4540965861306674
 
  0.00000000E+00  0.00000000E+00  0.00000000E+00
  0.00000000E+00  0.00000000E+00  0.00000000E+00
  0.00000000E+00  0.00000000E+00  0.00000000E+00
  0.00000000E+00  0.00000000E+00  0.00000000E+00
  0.00000000E+00  0.00000000E+00  0.00000000E+00
  0.00000000E+00  0.00000000E+00  0.00000000E+00
  0.00000000E+00  0.00000000E+00  0.00000000E+00
  0.00000000E+00  0.00000000E+00  0.00000000E+00
  0.00000000E+00  0.00000000E+00  0.00000000E+00
  0.00000000E+00  0.00000000E+00  0.00000000E+00
  0.00000000E+00  0.00000000E+00  0.00000000E+00
  0.00000000E+00  0.00000000E+00  0.00000000E+00
  0.00000000E+00  0.00000000E+00  0.00000000E+00
  0.00000000E+00  0.00000000E+00  0.00000000E+00
  0.00000000E+00  0.00000000E+00  0.00000000E+00
  0.00000000E+00  0.00000000E+00  0.00000000E+00
  0.00000000E+00  0.00000000E+00  0.00000000E+00
  0.00000000E+00  0.00000000E+00  0.00000000E+00
  0.00000000E+00  0.00000000E+00  0.00000000E+00
  0.00000000E+00  0.00000000E+00  0.00000000E+00
  0.00000000E+00  0.00000000E+00  0.00000000E+00
  0.00000000E+00  0.00000000E+00  0.00000000E+00
  0.00000000E+00  0.00000000E+00  0.00000000E+00
  0.00000000E+00  0.00000000E+00  0.00000000E+00
  0.00000000E+00  0.00000000E+00  0.00000000E+00
  0.00000000E+00  0.00000000E+00  0.00000000E+00
  0.00000000E+00  0.00000000E+00  0.00000000E+00
  0.00000000E+00  0.00000000E+00  0.00000000E+00
  0.00000000E+00  0.00000000E+00  0.00000000E+00
  0.00000000E+00  0.00000000E+00  0.00000000E+00
  0.00000000E+00  0.00000000E+00  0.00000000E+00
  0.00000000E+00  0.00000000E+00  0.00000000E+00
  0.00000000E+00  0.00000000E+00  0.00000000E+00
  0.00000000E+00  0.00000000E+00  0.00000000E+00
  0.00000000E+00  0.00000000E+00  0.00000000E+00
  0.00000000E+00  0.00000000E+00  0.00000000E+00
  0.00000000E+00  0.00000000E+00  0.00000000E+00
  0.00000000E+00  0.00000000E+00  0.00000000E+00
  0.00000000E+00  0.00000000E+00  0.00000000E+00
  0.00000000E+00  0.00000000E+00  0.00000000E+00
  0.00000000E+00  0.00000000E+00  0.00000000E+00
  0.00000000E+00  0.00000000E+00  0.00000000E+00
  0.00000000E+00  0.00000000E+00  0.00000000E+00
  0.00000000E+00  0.00000000E+00  0.00000000E+00
  0.00000000E+00  0.00000000E+00  0.00000000E+00
  0.00000000E+00  0.00000000E+00  0.00000000E+00
  0.00000000E+00  0.00000000E+00  0.00000000E+00
  0.00000000E+00  0.00000000E+00  0.00000000E+00
  0.00000000E+00  0.00000000E+00  0.00000000E+00
  0.00000000E+00  0.00000000E+00  0.00000000E+00
  0.00000000E+00  0.00000000E+00  0.00000000E+00
  0.00000000E+00  0.00000000E+00  0.00000000E+00
  0.00000000E+00  0.00000000E+00  0.00000000E+00
  0.00000000E+00  0.00000000E+00  0.00000000E+00
  0.00000000E+00  0.00000000E+00  0.00000000E+00
  0.00000000E+00  0.00000000E+00  0.00000000E+00
  0.00000000E+00  0.00000000E+00  0.00000000E+00
  0.00000000E+00  0.00000000E+00  0.00000000E+00
  0.00000000E+00  0.00000000E+00  0.00000000E+00
  0.00000000E+00  0.00000000E+00  0.00000000E+00
  0.00000000E+00  0.00000000E+00  0.00000000E+00
  0.00000000E+00  0.00000000E+00  0.00000000E+00
  0.00000000E+00  0.00000000E+00  0.00000000E+00
  0.00000000E+00  0.00000000E+00  0.00000000E+00
  0.00000000E+00  0.00000000E+00  0.00000000E+00
  0.00000000E+00  0.00000000E+00  0.00000000E+00
  0.00000000E+00  0.00000000E+00  0.00000000E+00
  0.00000000E+00  0.00000000E+00  0.00000000E+00
  0.00000000E+00  0.00000000E+00  0.00000000E+00
  0.00000000E+00  0.00000000E+00  0.00000000E+00
  0.00000000E+00  0.00000000E+00  0.00000000E+00
  0.00000000E+00  0.00000000E+00  0.00000000E+00
