Primitive Cell                          
   1.00000000000000     
    29.0553221847403229   -0.0256762334182731    0.0000000000000000
   -14.5486458188590362   25.1956601768162862    0.0000000000000000
     0.0000000000000000    0.0000000000000000   20.0000000000000000
   N    C    H 
    18    72    36
Direct
  0.3785670188197017  0.5302291487782682  0.5037446183597964
  0.4608320753660564  0.6119001962976327  0.5094240307634905
  0.3911719993122489  0.6044944878432403  0.4401201175899487
  0.4663795200354741  0.8694328802778273  0.5146729091205131
  0.3842387831498328  0.8692835263372132  0.5172949797435962
  0.3926062465322744  0.8058839870245791  0.4518421924575051
  0.1274505693554602  0.6141426305367901  0.5108262595047250
  0.1266640030380728  0.5319635134689378  0.5040947813881544
  0.1899290510089031  0.6065370372374446  0.4422266450304875
  0.5963318293053703  0.4747953246722787  0.5163644834552059
  0.5143584422490193  0.3927960021899111  0.5117220892113110
  0.5882269057869181  0.4047294094801970  0.4475885653650593
  0.5194928984134179  0.1422129313835612  0.5017175973740535
  0.6017779852814087  0.1428936391269104  0.4977202577779920
  0.5895897446976903  0.2042026389934932  0.4326717991809303
  0.8538602003104074  0.3957688723151023  0.5005325593089438
  0.8526479157574087  0.4768772088091495  0.5088665945085680
  0.7907767168504236  0.4074625405430581  0.4388640434554745
  0.4311790606486099  0.5586952449199600  0.5171590930765930
  0.4306193266567035  0.4737448593863647  0.5378410767221666
  0.5142973088927008  0.5570560507575095  0.5438069937939787
  0.4586339547262313  0.5296219401899904  0.5365585526886250
  0.3602834871081342  0.5554657223603314  0.4653841868005202
  0.4386206639363550  0.6330705245042552  0.4704868802473285
  0.4608273412102690  0.6911891650154018  0.4635769528509286
  0.3027887716045470  0.5349086153714708  0.4540110785490512
  0.4473207930863339  0.7576056493677399  0.4087277944821750
  0.4465516438756723  0.7097449257663087  0.4066837796540810
  0.2878045962034577  0.5537979408884581  0.3980623146768139
  0.2404467122148120  0.5542225924781050  0.3984116489806908
  0.4836904042271826  0.7253514555766500  0.5183679194980826
  0.4845528362477936  0.7739212291664899  0.5203942522162848
  0.2176186072169699  0.5092345038365735  0.5055032958767853
  0.2656092844774349  0.5088302536572300  0.5051805789881172
  0.4415406004708657  0.8249482553289482  0.4780087114588838
  0.4375956424182093  0.8936506855387947  0.5250324131801563
  0.3635684772017598  0.8250984341194396  0.4799480443490296
  0.1714770212006229  0.6352735197569004  0.4729726029734636
  0.1029137016033985  0.5607706377759527  0.5172528881552552
  0.1706808078119693  0.5570888748826093  0.4665211207633178
  0.6171490973101115  0.4522627371099333  0.4774862409706131
  0.5429967921404995  0.4455183408959016  0.5240379803093944
  0.5392656352877125  0.3741769652451268  0.4733474260301449
  0.5419594442206304  0.1854407085297964  0.4625288703339550
  0.5490892567912766  0.1187473864988675  0.5105789831626453
  0.6202780636184713  0.1861703686243317  0.4588613124912015
  0.8099953341011599  0.3771288868901195  0.4627397166494305
  0.8772940343632598  0.4481078941788752  0.5148633057917635
  0.8089798486630286  0.4543407127738845  0.4703410612162315
  0.4580093538779550  0.4460092631371211  0.5398648974766544
  0.5224692275715839  0.9796914724918935  0.5386104200211221
  0.5497303064129753  0.0347624658472725  0.5346084263780142
  0.0175525919743222  0.4759314305235094  0.5345410940806943
  0.9623399933475767  0.4483486224437456  0.5338804658577061
  0.4624808057930210  0.7882534540893076  0.4676070528389005
  0.2407749659688818  0.7117752316932808  0.4096538286751823
  0.2886716344353673  0.7589680820603206  0.4114747095330173
  0.3055668271708640  0.7890692905537691  0.4707248930416270
  0.2085331441278200  0.6933026355936960  0.4671048615525564
  0.2068454171856828  0.5357445770511688  0.4546733017817104
  0.5353459152530107  0.2552428181950717  0.3993628012416082
  0.5346768956142824  0.3023681635927247  0.4022190978494606
  0.5183876376533973  0.3168027700794624  0.4610263379296384
  0.5198767946124292  0.2213991902284462  0.4553631556739504
  0.7409013111649188  0.3048101332100330  0.3934383893802149
  0.6934947347285956  0.2570617153662624  0.3924246880263240
  0.6778771991409016  0.2230365291780174  0.4482588066187105
  0.7739194813051782  0.3196901119509050  0.4502410138218238
  0.6922542492479877  0.4617470028941000  0.4089784321085261
  0.7400564032485732  0.4622830802422087  0.4070622729823299
  0.7720293601937342  0.4754126971230406  0.4646832969794303
  0.6751657530941344  0.4743574654869391  0.4685273596889630
  0.5416974678631021  0.5293429113420132  0.5457971791414948
  0.5139786371169990  0.4735989341884164  0.5405846879667564
  0.4659077347304503  0.0342091757523875  0.5379415108021703
  0.4386409319556179  0.9791553286308741  0.5419129702515875
  0.4665004938863575  0.9511663870962366  0.5391784852857100
  0.5216129533502212  0.0624560589539129  0.5311634981273556
  0.9623599969279653  0.5317512128669222  0.5390358325045312
  0.0176023711103994  0.5593524738875217  0.5396539955569892
  0.0457983977063208  0.5318278970251455  0.5342410684105658
  0.9341842732183636  0.4760756448922194  0.5329547850676875
  0.2699477154401819  0.7749645189435554  0.5244093335822555
  0.2214288419464268  0.7270247248785893  0.5226422487014020
  0.4950859920329975  0.2794107055123476  0.5125785421128981
  0.4958810690949136  0.2317132114052498  0.5097530637880752
  0.7145030367400338  0.2339050286455588  0.5000642516796390
  0.7625528480079993  0.2822290596784285  0.5010368524524509
  0.7590076377517576  0.4957417513660047  0.5206044444075744
  0.7105463161897489  0.4952306620430633  0.5225367753864560
  0.3874430746634658  0.4527915955258806  0.5334254843719890
  0.5356030481251679  0.6003152437669144  0.5439859509226181
  0.4302700933027666  0.6838961429303936  0.3632913015886814
  0.3160188388499421  0.5725785992346459  0.3573111633831232
  0.4960259996057204  0.7116053029825125  0.5619089865674667
  0.2765450127486133  0.4928563226976621  0.5477632881743020
  0.4367957198333556  0.4028026741486528  0.5370072910813519
  0.5438256091621412  0.9577963462310493  0.5375805072302597
  0.5929254086539899  0.0569999652269644  0.5304707543090998
  0.0396778539421661  0.4548697202089258  0.5314969007812493
  0.9402047497049892  0.4051812718108039  0.5302975381792692
  0.4316612178978403  0.7696004947221553  0.3669355921767377
  0.3157371247630110  0.7707551626757478  0.3690388244549823
  0.2299677044584811  0.6862564080722393  0.3657884992683620
  0.2311922910145867  0.5733348937992133  0.3579474900760005
  0.5513022020725415  0.3308164399422395  0.3613383290071752
  0.5524622323225756  0.2463960643463210  0.3562240592693726
  0.6657140278122924  0.2477597942205492  0.3511869238780605
  0.7506218765546322  0.3333017982267279  0.3530054402499658
  0.7509613859250237  0.4479176988996016  0.3629501977987033
  0.6653392161107945  0.4469696113595347  0.3663587797270509
  0.5849947889746900  0.5503935155847230  0.5475002072656707
  0.3953416968674617  0.9568211322246896  0.5433498379240760
  0.4444901871433373  0.0560318063114593  0.5363308667337776
  0.0397463313582236  0.6026156509282785  0.5405213191360261
  0.9402284900856159  0.5528779088021736  0.5394225987110559
  0.4976299356910516  0.7982268214990782  0.5655364273738925
  0.2823821693557562  0.7989293218242750  0.5698519004722939
  0.1959399489497287  0.7134531626592988  0.5667725135695036
  0.1908700123663891  0.4935708917969350  0.5483140730658462
  0.4811546872480008  0.2899283733782028  0.5575406464876309
  0.4826012638167825  0.2048066157229300  0.5524936123745547
  0.7030284514536262  0.2068687193424736  0.5425726550872270
  0.7888287010476560  0.2931355621601242  0.5443122813758166
  0.7843839572719205  0.5071342462449522  0.5648056251319886
  0.6979865178464522  0.5062717736430287  0.5682678484976051
 
  0.00000000E+00  0.00000000E+00  0.00000000E+00
  0.00000000E+00  0.00000000E+00  0.00000000E+00
  0.00000000E+00  0.00000000E+00  0.00000000E+00
  0.00000000E+00  0.00000000E+00  0.00000000E+00
  0.00000000E+00  0.00000000E+00  0.00000000E+00
  0.00000000E+00  0.00000000E+00  0.00000000E+00
  0.00000000E+00  0.00000000E+00  0.00000000E+00
  0.00000000E+00  0.00000000E+00  0.00000000E+00
  0.00000000E+00  0.00000000E+00  0.00000000E+00
  0.00000000E+00  0.00000000E+00  0.00000000E+00
  0.00000000E+00  0.00000000E+00  0.00000000E+00
  0.00000000E+00  0.00000000E+00  0.00000000E+00
  0.00000000E+00  0.00000000E+00  0.00000000E+00
  0.00000000E+00  0.00000000E+00  0.00000000E+00
  0.00000000E+00  0.00000000E+00  0.00000000E+00
  0.00000000E+00  0.00000000E+00  0.00000000E+00
  0.00000000E+00  0.00000000E+00  0.00000000E+00
  0.00000000E+00  0.00000000E+00  0.00000000E+00
  0.00000000E+00  0.00000000E+00  0.00000000E+00
  0.00000000E+00  0.00000000E+00  0.00000000E+00
  0.00000000E+00  0.00000000E+00  0.00000000E+00
  0.00000000E+00  0.00000000E+00  0.00000000E+00
  0.00000000E+00  0.00000000E+00  0.00000000E+00
  0.00000000E+00  0.00000000E+00  0.00000000E+00
  0.00000000E+00  0.00000000E+00  0.00000000E+00
  0.00000000E+00  0.00000000E+00  0.00000000E+00
  0.00000000E+00  0.00000000E+00  0.00000000E+00
  0.00000000E+00  0.00000000E+00  0.00000000E+00
  0.00000000E+00  0.00000000E+00  0.00000000E+00
  0.00000000E+00  0.00000000E+00  0.00000000E+00
  0.00000000E+00  0.00000000E+00  0.00000000E+00
  0.00000000E+00  0.00000000E+00  0.00000000E+00
  0.00000000E+00  0.00000000E+00  0.00000000E+00
  0.00000000E+00  0.00000000E+00  0.00000000E+00
  0.00000000E+00  0.00000000E+00  0.00000000E+00
  0.00000000E+00  0.00000000E+00  0.00000000E+00
  0.00000000E+00  0.00000000E+00  0.00000000E+00
  0.00000000E+00  0.00000000E+00  0.00000000E+00
  0.00000000E+00  0.00000000E+00  0.00000000E+00
  0.00000000E+00  0.00000000E+00  0.00000000E+00
  0.00000000E+00  0.00000000E+00  0.00000000E+00
  0.00000000E+00  0.00000000E+00  0.00000000E+00
  0.00000000E+00  0.00000000E+00  0.00000000E+00
  0.00000000E+00  0.00000000E+00  0.00000000E+00
  0.00000000E+00  0.00000000E+00  0.00000000E+00
  0.00000000E+00  0.00000000E+00  0.00000000E+00
  0.00000000E+00  0.00000000E+00  0.00000000E+00
  0.00000000E+00  0.00000000E+00  0.00000000E+00
  0.00000000E+00  0.00000000E+00  0.00000000E+00
  0.00000000E+00  0.00000000E+00  0.00000000E+00
  0.00000000E+00  0.00000000E+00  0.00000000E+00
  0.00000000E+00  0.00000000E+00  0.00000000E+00
  0.00000000E+00  0.00000000E+00  0.00000000E+00
  0.00000000E+00  0.00000000E+00  0.00000000E+00
  0.00000000E+00  0.00000000E+00  0.00000000E+00
  0.00000000E+00  0.00000000E+00  0.00000000E+00
  0.00000000E+00  0.00000000E+00  0.00000000E+00
  0.00000000E+00  0.00000000E+00  0.00000000E+00
  0.00000000E+00  0.00000000E+00  0.00000000E+00
  0.00000000E+00  0.00000000E+00  0.00000000E+00
  0.00000000E+00  0.00000000E+00  0.00000000E+00
  0.00000000E+00  0.00000000E+00  0.00000000E+00
  0.00000000E+00  0.00000000E+00  0.00000000E+00
  0.00000000E+00  0.00000000E+00  0.00000000E+00
  0.00000000E+00  0.00000000E+00  0.00000000E+00
  0.00000000E+00  0.00000000E+00  0.00000000E+00
  0.00000000E+00  0.00000000E+00  0.00000000E+00
  0.00000000E+00  0.00000000E+00  0.00000000E+00
  0.00000000E+00  0.00000000E+00  0.00000000E+00
  0.00000000E+00  0.00000000E+00  0.00000000E+00
  0.00000000E+00  0.00000000E+00  0.00000000E+00
  0.00000000E+00  0.00000000E+00  0.00000000E+00
  0.00000000E+00  0.00000000E+00  0.00000000E+00
  0.00000000E+00  0.00000000E+00  0.00000000E+00
  0.00000000E+00  0.00000000E+00  0.00000000E+00
  0.00000000E+00  0.00000000E+00  0.00000000E+00
  0.00000000E+00  0.00000000E+00  0.00000000E+00
  0.00000000E+00  0.00000000E+00  0.00000000E+00
  0.00000000E+00  0.00000000E+00  0.00000000E+00
  0.00000000E+00  0.00000000E+00  0.00000000E+00
  0.00000000E+00  0.00000000E+00  0.00000000E+00
  0.00000000E+00  0.00000000E+00  0.00000000E+00
  0.00000000E+00  0.00000000E+00  0.00000000E+00
  0.00000000E+00  0.00000000E+00  0.00000000E+00
  0.00000000E+00  0.00000000E+00  0.00000000E+00
  0.00000000E+00  0.00000000E+00  0.00000000E+00
  0.00000000E+00  0.00000000E+00  0.00000000E+00
  0.00000000E+00  0.00000000E+00  0.00000000E+00
  0.00000000E+00  0.00000000E+00  0.00000000E+00
  0.00000000E+00  0.00000000E+00  0.00000000E+00
  0.00000000E+00  0.00000000E+00  0.00000000E+00
  0.00000000E+00  0.00000000E+00  0.00000000E+00
  0.00000000E+00  0.00000000E+00  0.00000000E+00
  0.00000000E+00  0.00000000E+00  0.00000000E+00
  0.00000000E+00  0.00000000E+00  0.00000000E+00
  0.00000000E+00  0.00000000E+00  0.00000000E+00
  0.00000000E+00  0.00000000E+00  0.00000000E+00
  0.00000000E+00  0.00000000E+00  0.00000000E+00
  0.00000000E+00  0.00000000E+00  0.00000000E+00
  0.00000000E+00  0.00000000E+00  0.00000000E+00
  0.00000000E+00  0.00000000E+00  0.00000000E+00
  0.00000000E+00  0.00000000E+00  0.00000000E+00
  0.00000000E+00  0.00000000E+00  0.00000000E+00
  0.00000000E+00  0.00000000E+00  0.00000000E+00
  0.00000000E+00  0.00000000E+00  0.00000000E+00
  0.00000000E+00  0.00000000E+00  0.00000000E+00
  0.00000000E+00  0.00000000E+00  0.00000000E+00
  0.00000000E+00  0.00000000E+00  0.00000000E+00
  0.00000000E+00  0.00000000E+00  0.00000000E+00
  0.00000000E+00  0.00000000E+00  0.00000000E+00
  0.00000000E+00  0.00000000E+00  0.00000000E+00
  0.00000000E+00  0.00000000E+00  0.00000000E+00
  0.00000000E+00  0.00000000E+00  0.00000000E+00
  0.00000000E+00  0.00000000E+00  0.00000000E+00
  0.00000000E+00  0.00000000E+00  0.00000000E+00
  0.00000000E+00  0.00000000E+00  0.00000000E+00
  0.00000000E+00  0.00000000E+00  0.00000000E+00
  0.00000000E+00  0.00000000E+00  0.00000000E+00
  0.00000000E+00  0.00000000E+00  0.00000000E+00
  0.00000000E+00  0.00000000E+00  0.00000000E+00
  0.00000000E+00  0.00000000E+00  0.00000000E+00
  0.00000000E+00  0.00000000E+00  0.00000000E+00
  0.00000000E+00  0.00000000E+00  0.00000000E+00
  0.00000000E+00  0.00000000E+00  0.00000000E+00
  0.00000000E+00  0.00000000E+00  0.00000000E+00
  0.00000000E+00  0.00000000E+00  0.00000000E+00
