Primitive Cell                          
   1.00000000000000     
    25.3892321854144534    0.0065343376143827    0.0000000000000000
    -0.0099924817547426   25.3945014452870126    0.0000000000000000
     0.0000000000000000    0.0000000000000000   20.0000000000000000
   H    N    O    C 
    34    12     2    58
Direct
  0.0129127354021179  0.2943947839364398  0.4125818769924621
  0.0164393028304843  0.1961139460957213  0.4092769848658335
  0.7898106076655509  0.0148044319456559  0.4114082119188609
  0.6914361447215427  0.0119499701497361  0.4132629958098377
  0.9628736960352455  0.7875601811536441  0.4169570358268402
  0.9669041370680631  0.6893548705815391  0.4176439712514224
  0.2958007877716682  0.9658919760045919  0.4135742638083499
  0.1975843369890455  0.9607778855176718  0.4131094049204123
  0.0039170064650023  0.4484100021856179  0.3658378121580057
  0.5378363133624546  0.0067389513004414  0.3648834315044596
  0.9516088974574117  0.2876091080416572  0.6131553401316410
  0.9554092012384103  0.1897165550935540  0.6099860398143448
  0.0923923806215896  0.1749703067404482  0.5055589717770985
  0.1697719845480279  0.1029245991341057  0.5047262023044610
  0.0228497525066516  0.0227240407965823  0.5087254587740659
  0.9642319901842100  0.9598836974440133  0.5094711567691732
  0.8820210317269641  0.1677971614476377  0.5077353509949916
  0.8098198585854774  0.0905228617395792  0.5103897530860095
  0.7938316163464876  0.9562201064820499  0.6134017328773211
  0.6958806075136650  0.9531954323218557  0.6151400848464590
  0.8170848329525313  0.8801760229698132  0.5145173162804610
  0.8943023405456429  0.8079084985314537  0.5165270587471582
  0.1773554181928532  0.8920728981484842  0.5103135019801357
  0.1054023515674132  0.8149961583066911  0.5091971905468640
  0.0399889957237107  0.7915882130350269  0.6086784688815001
  0.0453833277470324  0.6938802944306275  0.6085534191354327
  0.1931656510345618  0.0355386770469792  0.6063048260825425
  0.2908822989608097  0.0418268647988640  0.6061167238713168
  0.0339605721528784  0.6100729349279916  0.5534766700118539
  0.6119938516131995  0.9637093190428203  0.5623410399456930
  0.9620277932754391  0.3720193361751143  0.5618167526023754
  0.3745112904621095  0.0315325519316829  0.5512949991311515
  0.9409261946956704  0.5803408009135609  0.5893463811758650
  0.4039872578923962  0.9371278041801006  0.5831432336233036
  0.9950712795893040  0.5206860849547539  0.4127795490379995
  0.9939762121516935  0.3839256645182019  0.4667319120949998
  0.4649879547676434  0.9966321781216365  0.4100487899709790
  0.6012337052825671  0.9940873422319427  0.4661905118357978
  0.0502634896822443  0.0521125858843590  0.5076025134492426
  0.9349136750604998  0.0460362680397708  0.5082068607495955
  0.9367763590680482  0.9305361686687235  0.5107311049247514
  0.0522892845821943  0.9366364541690118  0.5100557381144739
  0.9785122039132403  0.4624858621802943  0.5301171202996429
  0.9862828459010871  0.5993783118299589  0.4693875829103007
  0.5220115496806628  0.9771390953612311  0.5277867396360278
  0.3857564978650529  0.9861953950633904  0.4652460986602946
  0.9599675802586773  0.5185166256303901  0.6493887789556965
  0.4639735290041358  0.9573709083491124  0.6455855300230056
  0.2182727747465378  0.9779410525302126  0.4556508566277202
  0.2728607662269411  0.9807532102019962  0.4556286677140307
  0.9802562920641407  0.7667958915036905  0.4593060853235684
  0.9824911114929691  0.7121955936857631  0.4593605636955971
  0.7143219519133339  0.0000038444823645  0.4568249264843871
  0.7689651078761415  0.0015043668665129  0.4560348856827616
  0.0025823399789999  0.2164150843674264  0.4540287797599234
  0.0006664220689387  0.2710358273244822  0.4556018239339750
  0.9970041753351211  0.4686289117579108  0.4133172129386935
  0.9897010405564117  0.4385187184632642  0.4723672123672955
  0.5170663312827628  0.9985846795926889  0.4116573689373624
  0.5465600260575556  0.9898197918973963  0.4708943312041427
  0.0881603085294671  0.1324907882157405  0.5060837712508715
  0.1277142875792805  0.0956403356895663  0.5060645512683095
  0.1039027218618926  0.0443912288017216  0.5079412328784016
  0.0387560129106816  0.1050825118447065  0.5067197848973848
  0.9882692370378194  0.1277322400153622  0.5077719839408346
  0.9402156460726587  0.0997528948225934  0.5083423853937603
  0.8816752020292711  0.0370868933808737  0.5089401211825049
  0.8523721989340345  0.0865168612266416  0.5093607543502827
  0.8889003351305433  0.1256183287383621  0.5084115681792269
  0.8570667665932916  0.9872494012810691  0.5109292329139521
  0.8831397439522846  0.9384234859214757  0.5120176678249635
  0.9482190012248921  0.8775723147187335  0.5118994870961373
  0.8987046051568086  0.8503411401032324  0.5144016363691932
  0.8592031051840081  0.8872721498766865  0.5137922272239663
  0.9988047464153951  0.8548901210533799  0.5119502039217636
  0.0469272572634409  0.8829081523017521  0.5109778593324847
  0.1055362794881276  0.9456478833459130  0.5093094913593887
  0.1348148327404886  0.8962353897672770  0.5099672108059465
  0.0982913752809793  0.8571238588229164  0.5099745270131280
  0.1300969464749286  0.9955741807378473  0.5089845635530068
  0.1887271219261351  0.9977893614443900  0.5097173840594778
  0.2996504121227730  0.0040303251168581  0.5097555974243448
  0.2703867425918816  0.0239818926427304  0.5637633624478227
  0.2156480332395105  0.0205576321357981  0.5639059530084651
  0.0010515042025858  0.7962752689927441  0.5128851202358433
  0.0061607277496734  0.6852576826650463  0.5130832766176141
  0.0271460324432482  0.7144408325067317  0.5665361052817701
  0.0242231343709420  0.7692055132318316  0.5666642020834871
  0.7983712034669992  0.9855836433721379  0.5122639817708645
  0.7713837027441173  0.9681693090006007  0.5694316774619566
  0.7165520577654902  0.9665953884307044  0.5703671656936251
  0.6872376156473337  0.9824219510247900  0.5141641560336581
  0.9861484513229257  0.1863822348923563  0.5094566446048390
  0.9678672257991465  0.2126921067260596  0.5667010016955558
  0.9821143501881267  0.2974132995162648  0.5129549296750895
  0.9658138810770538  0.2674677344851091  0.5683994767350100
  0.0094915713547010  0.6279183071152517  0.5136421369354807
  0.6299628255170902  0.9794852151003255  0.5162692997093501
  0.9786863924346392  0.3546195334895330  0.5158978537577070
  0.3569374382729436  0.0079463419392951  0.5104085765191755
  0.9862506844767722  0.5451670169792564  0.4718446349497540
  0.9758683029313744  0.5152050167468332  0.5309254114339623
  0.9580429216735951  0.5400577636341453  0.5947491450138358
  0.4399441407993905  0.9862745698384074  0.4683245613044278
  0.4692927920624115  0.9744718778335937  0.5275031029882342
  0.4436570516956948  0.9553058602451259  0.5902087906031497
 
  0.00000000E+00  0.00000000E+00  0.00000000E+00
  0.00000000E+00  0.00000000E+00  0.00000000E+00
  0.00000000E+00  0.00000000E+00  0.00000000E+00
  0.00000000E+00  0.00000000E+00  0.00000000E+00
  0.00000000E+00  0.00000000E+00  0.00000000E+00
  0.00000000E+00  0.00000000E+00  0.00000000E+00
  0.00000000E+00  0.00000000E+00  0.00000000E+00
  0.00000000E+00  0.00000000E+00  0.00000000E+00
  0.00000000E+00  0.00000000E+00  0.00000000E+00
  0.00000000E+00  0.00000000E+00  0.00000000E+00
  0.00000000E+00  0.00000000E+00  0.00000000E+00
  0.00000000E+00  0.00000000E+00  0.00000000E+00
  0.00000000E+00  0.00000000E+00  0.00000000E+00
  0.00000000E+00  0.00000000E+00  0.00000000E+00
  0.00000000E+00  0.00000000E+00  0.00000000E+00
  0.00000000E+00  0.00000000E+00  0.00000000E+00
  0.00000000E+00  0.00000000E+00  0.00000000E+00
  0.00000000E+00  0.00000000E+00  0.00000000E+00
  0.00000000E+00  0.00000000E+00  0.00000000E+00
  0.00000000E+00  0.00000000E+00  0.00000000E+00
  0.00000000E+00  0.00000000E+00  0.00000000E+00
  0.00000000E+00  0.00000000E+00  0.00000000E+00
  0.00000000E+00  0.00000000E+00  0.00000000E+00
  0.00000000E+00  0.00000000E+00  0.00000000E+00
  0.00000000E+00  0.00000000E+00  0.00000000E+00
  0.00000000E+00  0.00000000E+00  0.00000000E+00
  0.00000000E+00  0.00000000E+00  0.00000000E+00
  0.00000000E+00  0.00000000E+00  0.00000000E+00
  0.00000000E+00  0.00000000E+00  0.00000000E+00
  0.00000000E+00  0.00000000E+00  0.00000000E+00
  0.00000000E+00  0.00000000E+00  0.00000000E+00
  0.00000000E+00  0.00000000E+00  0.00000000E+00
  0.00000000E+00  0.00000000E+00  0.00000000E+00
  0.00000000E+00  0.00000000E+00  0.00000000E+00
  0.00000000E+00  0.00000000E+00  0.00000000E+00
  0.00000000E+00  0.00000000E+00  0.00000000E+00
  0.00000000E+00  0.00000000E+00  0.00000000E+00
  0.00000000E+00  0.00000000E+00  0.00000000E+00
  0.00000000E+00  0.00000000E+00  0.00000000E+00
  0.00000000E+00  0.00000000E+00  0.00000000E+00
  0.00000000E+00  0.00000000E+00  0.00000000E+00
  0.00000000E+00  0.00000000E+00  0.00000000E+00
  0.00000000E+00  0.00000000E+00  0.00000000E+00
  0.00000000E+00  0.00000000E+00  0.00000000E+00
  0.00000000E+00  0.00000000E+00  0.00000000E+00
  0.00000000E+00  0.00000000E+00  0.00000000E+00
  0.00000000E+00  0.00000000E+00  0.00000000E+00
  0.00000000E+00  0.00000000E+00  0.00000000E+00
  0.00000000E+00  0.00000000E+00  0.00000000E+00
  0.00000000E+00  0.00000000E+00  0.00000000E+00
  0.00000000E+00  0.00000000E+00  0.00000000E+00
  0.00000000E+00  0.00000000E+00  0.00000000E+00
  0.00000000E+00  0.00000000E+00  0.00000000E+00
  0.00000000E+00  0.00000000E+00  0.00000000E+00
  0.00000000E+00  0.00000000E+00  0.00000000E+00
  0.00000000E+00  0.00000000E+00  0.00000000E+00
  0.00000000E+00  0.00000000E+00  0.00000000E+00
  0.00000000E+00  0.00000000E+00  0.00000000E+00
  0.00000000E+00  0.00000000E+00  0.00000000E+00
  0.00000000E+00  0.00000000E+00  0.00000000E+00
  0.00000000E+00  0.00000000E+00  0.00000000E+00
  0.00000000E+00  0.00000000E+00  0.00000000E+00
  0.00000000E+00  0.00000000E+00  0.00000000E+00
  0.00000000E+00  0.00000000E+00  0.00000000E+00
  0.00000000E+00  0.00000000E+00  0.00000000E+00
  0.00000000E+00  0.00000000E+00  0.00000000E+00
  0.00000000E+00  0.00000000E+00  0.00000000E+00
  0.00000000E+00  0.00000000E+00  0.00000000E+00
  0.00000000E+00  0.00000000E+00  0.00000000E+00
  0.00000000E+00  0.00000000E+00  0.00000000E+00
  0.00000000E+00  0.00000000E+00  0.00000000E+00
  0.00000000E+00  0.00000000E+00  0.00000000E+00
  0.00000000E+00  0.00000000E+00  0.00000000E+00
  0.00000000E+00  0.00000000E+00  0.00000000E+00
  0.00000000E+00  0.00000000E+00  0.00000000E+00
  0.00000000E+00  0.00000000E+00  0.00000000E+00
  0.00000000E+00  0.00000000E+00  0.00000000E+00
  0.00000000E+00  0.00000000E+00  0.00000000E+00
  0.00000000E+00  0.00000000E+00  0.00000000E+00
  0.00000000E+00  0.00000000E+00  0.00000000E+00
  0.00000000E+00  0.00000000E+00  0.00000000E+00
  0.00000000E+00  0.00000000E+00  0.00000000E+00
  0.00000000E+00  0.00000000E+00  0.00000000E+00
  0.00000000E+00  0.00000000E+00  0.00000000E+00
  0.00000000E+00  0.00000000E+00  0.00000000E+00
  0.00000000E+00  0.00000000E+00  0.00000000E+00
  0.00000000E+00  0.00000000E+00  0.00000000E+00
  0.00000000E+00  0.00000000E+00  0.00000000E+00
  0.00000000E+00  0.00000000E+00  0.00000000E+00
  0.00000000E+00  0.00000000E+00  0.00000000E+00
  0.00000000E+00  0.00000000E+00  0.00000000E+00
  0.00000000E+00  0.00000000E+00  0.00000000E+00
  0.00000000E+00  0.00000000E+00  0.00000000E+00
  0.00000000E+00  0.00000000E+00  0.00000000E+00
  0.00000000E+00  0.00000000E+00  0.00000000E+00
  0.00000000E+00  0.00000000E+00  0.00000000E+00
  0.00000000E+00  0.00000000E+00  0.00000000E+00
  0.00000000E+00  0.00000000E+00  0.00000000E+00
  0.00000000E+00  0.00000000E+00  0.00000000E+00
  0.00000000E+00  0.00000000E+00  0.00000000E+00
  0.00000000E+00  0.00000000E+00  0.00000000E+00
  0.00000000E+00  0.00000000E+00  0.00000000E+00
  0.00000000E+00  0.00000000E+00  0.00000000E+00
  0.00000000E+00  0.00000000E+00  0.00000000E+00
  0.00000000E+00  0.00000000E+00  0.00000000E+00
  0.00000000E+00  0.00000000E+00  0.00000000E+00
