Primitive Cell                          
   1.00000000000000     
    29.3123544518143895    0.0210150394594047    0.0000000000000000
   -14.6378955898812624   25.3427040334610894    0.0000000000000000
     0.0000000000000000    0.0000000000000000   20.0000000000000000
   H    C    N 
    33    48    15
Direct
  0.0141246463332436  0.5029132041039048  0.6399376139673620
  0.0298955158256220  0.4428178188935092  0.4539770042733196
  0.5331567412271809  0.9563806621080317  0.5662368165364526
  0.4806423665729724  0.8589780665055500  0.5514906378382207
  0.5786238293961006  0.1297162204988140  0.6304340086102016
  0.5283408496924338  0.0463270615665294  0.6826856903186140
  0.4923293185780935  0.9889797981682449  0.6403535752125293
  0.6223527941708014  0.2140089625854742  0.5794547167729078
  0.4261803484099076  0.4689990074884207  0.5661517173156483
  0.3812945210629906  0.5215325173378886  0.5515477662519075
  0.5547312170848571  0.4242703420061815  0.6299877408292502
  0.5209740135757812  0.4740413368410046  0.6822202790632517
  0.4995577506862503  0.5099767955441195  0.6398901512304889
  0.5954188180748332  0.3807337043883265  0.5787591517643378
  0.0465759135478763  0.5764650601233328  0.5655039965227147
  0.1438791824593864  0.6213269232593603  0.5507392649968494
  0.8735007550701965  0.4485314211808031  0.6297952825088444
  0.7893096490072367  0.4077446458012943  0.5784504187577966
  0.5024776158864697  0.0422136148251653  0.4140923209834710
  0.5550923311837579  0.1404457094036928  0.4197556641060771
  0.3652268469894651  0.8762985205643830  0.4384773010557055
  0.4169106940673046  0.9733585838106578  0.4537447567541903
  0.3511908711782041  0.7891590719440202  0.4568683306338670
  0.5424697252165700  0.4999686351228547  0.4136657422467209
  0.5888260698179479  0.4480760937875203  0.4193026344904780
  0.5136977999683765  0.6371097311218037  0.4382062132591926
  0.5590523814356629  0.5854122157716546  0.4533882557904505
  0.4408774703487097  0.6512816487440176  0.4570143104421263
  0.8631272799947496  0.4139248002539588  0.4192646783438860
  0.1268552710021140  0.4881148485298468  0.4387257373434821
  0.2138946058698039  0.5612854876996138  0.4572879073674088
  0.9568602126915948  0.4816476317593654  0.6822647153017272
  0.9612699716038620  0.4596863741649457  0.4137684208017731
  0.0311913736685838  0.5060322313446903  0.5113835398746787
  0.2842309955560722  0.6475713452630458  0.5095855005722285
  0.3665883107843513  0.7184821607442373  0.5095112838633327
  0.3551023117535053  0.6360035670744821  0.5097160915674408
  0.7203266940672393  0.3552992917136635  0.4864398548587232
  0.6392701481044867  0.2835118159923198  0.4872102126580842
  0.6486387352417324  0.3647485506777528  0.4870057553799754
  0.5702483896561148  0.1409953671423381  0.5255869669544708
  0.5616475369915648  0.1102552747093881  0.5827904242748474
  0.5311359461034755  0.0549173921377673  0.5809671431100440
  0.5097952610028074  0.0299425034914975  0.5186140718103118
  0.4785202161909083  0.9719787000378375  0.5116314949740826
  0.4958546570868236  0.9387876916386304  0.5392203782352141
  0.4669923109707455  0.8845270015052762  0.5307959494954417
  0.6022676752358862  0.1984335455376467  0.5310822364368590
  0.5743349122394292  0.4328390742699710  0.5251470428032761
  0.5520211793740160  0.4411418261087761  0.5823667366756879
  0.5268350047723800  0.4713011541016456  0.5805478668411084
  0.5230095045194858  0.4925567458844640  0.5182215045638046
  0.4962310637961522  0.5237384575374975  0.5113817406420011
  0.4458146197537118  0.5063529808807417  0.5391103124351488
  0.4204246409258232  0.5352256660849335  0.5307774663825100
  0.6001099031761257  0.4011708881813121  0.5305944098445394
  0.8624597073707676  0.4287194068787414  0.5249995959269569
  0.8930314723479711  0.4509428696086530  0.5822552983057392
  0.0642301059763213  0.5566639188846594  0.5387212739247929
  0.1184076454827974  0.5820183900440696  0.5303304265446798
  0.8051057819702478  0.4032935200513563  0.5302128591961335
  0.5186553121544151  0.0618025195312839  0.4617777804377781
  0.5481294924761073  0.1163522597045912  0.4642290610006370
  0.4194227437946694  0.8612285384053990  0.4945424717745439
  0.4021604853061618  0.8940187268032318  0.4664646683661431
  0.4311781414156712  0.9484457206261894  0.4749144191296679
  0.3876596231451543  0.8042222453721095  0.4865969051682129
  0.5460946019537118  0.4839179698380960  0.4613450068203377
  0.5715696964679822  0.4548335468180440  0.4637853612443124
  0.4446346051152830  0.5828689390214308  0.4945104765409241
  0.4945641503733214  0.6001550579304507  0.4662713670748673
  0.5199573287004142  0.5711382005871570  0.4746414614955654
  0.4195127025072836  0.6147460394345927  0.4867176805302549
  0.8871530616361554  0.4311530888429900  0.4637324383281722
  0.1417669941693589  0.5575750632298693  0.4944322761463553
  0.1091065536653701  0.5074273833999356  0.4665494782155903
  0.0547573075494086  0.4820717205358562  0.4749405302362746
  0.1987074644050253  0.5827867533383397  0.4866836193112221
  0.9482905639411285  0.4757661126642816  0.5805420049966301
  0.9733163720282789  0.4793524329781320  0.5182624421265984
  0.9416201734185492  0.4562795491546652  0.4613863146990340
  0.3143351876871634  0.7004793209340434  0.5097414759503351
  0.3893212224261973  0.6883076360117357  0.5097913294139147
  0.3023081226168429  0.6133343806669060  0.5100616989499542
  0.2301334194376352  0.6278832090427287  0.5133931213484573
  0.3746655543140918  0.6014335647978086  0.5137379876231876
  0.4010459838091975  0.7726253180815803  0.5134753769558102
  0.6915010184370374  0.3022292703420817  0.4866313674214453
  0.6151233471975459  0.3124312209492359  0.4875794856497251
  0.7016390436958773  0.3889056551353320  0.4864441394159584
  0.7744655053283935  0.3768645763830349  0.4821223663785119
  0.6270441359478838  0.3973816381058839  0.4828123326796074
  0.6066923100765607  0.2293077173322331  0.4831483596900412
  0.5233642451856255  0.0263221848161521  0.6394348897991051
  0.5058661294993740  0.4789066700846973  0.6389760435130114
  0.9768229179672190  0.4966509156681624  0.6390018576244998
 
  0.00000000E+00  0.00000000E+00  0.00000000E+00
  0.00000000E+00  0.00000000E+00  0.00000000E+00
  0.00000000E+00  0.00000000E+00  0.00000000E+00
  0.00000000E+00  0.00000000E+00  0.00000000E+00
  0.00000000E+00  0.00000000E+00  0.00000000E+00
  0.00000000E+00  0.00000000E+00  0.00000000E+00
  0.00000000E+00  0.00000000E+00  0.00000000E+00
  0.00000000E+00  0.00000000E+00  0.00000000E+00
  0.00000000E+00  0.00000000E+00  0.00000000E+00
  0.00000000E+00  0.00000000E+00  0.00000000E+00
  0.00000000E+00  0.00000000E+00  0.00000000E+00
  0.00000000E+00  0.00000000E+00  0.00000000E+00
  0.00000000E+00  0.00000000E+00  0.00000000E+00
  0.00000000E+00  0.00000000E+00  0.00000000E+00
  0.00000000E+00  0.00000000E+00  0.00000000E+00
  0.00000000E+00  0.00000000E+00  0.00000000E+00
  0.00000000E+00  0.00000000E+00  0.00000000E+00
  0.00000000E+00  0.00000000E+00  0.00000000E+00
  0.00000000E+00  0.00000000E+00  0.00000000E+00
  0.00000000E+00  0.00000000E+00  0.00000000E+00
  0.00000000E+00  0.00000000E+00  0.00000000E+00
  0.00000000E+00  0.00000000E+00  0.00000000E+00
  0.00000000E+00  0.00000000E+00  0.00000000E+00
  0.00000000E+00  0.00000000E+00  0.00000000E+00
  0.00000000E+00  0.00000000E+00  0.00000000E+00
  0.00000000E+00  0.00000000E+00  0.00000000E+00
  0.00000000E+00  0.00000000E+00  0.00000000E+00
  0.00000000E+00  0.00000000E+00  0.00000000E+00
  0.00000000E+00  0.00000000E+00  0.00000000E+00
  0.00000000E+00  0.00000000E+00  0.00000000E+00
  0.00000000E+00  0.00000000E+00  0.00000000E+00
  0.00000000E+00  0.00000000E+00  0.00000000E+00
  0.00000000E+00  0.00000000E+00  0.00000000E+00
  0.00000000E+00  0.00000000E+00  0.00000000E+00
  0.00000000E+00  0.00000000E+00  0.00000000E+00
  0.00000000E+00  0.00000000E+00  0.00000000E+00
  0.00000000E+00  0.00000000E+00  0.00000000E+00
  0.00000000E+00  0.00000000E+00  0.00000000E+00
  0.00000000E+00  0.00000000E+00  0.00000000E+00
  0.00000000E+00  0.00000000E+00  0.00000000E+00
  0.00000000E+00  0.00000000E+00  0.00000000E+00
  0.00000000E+00  0.00000000E+00  0.00000000E+00
  0.00000000E+00  0.00000000E+00  0.00000000E+00
  0.00000000E+00  0.00000000E+00  0.00000000E+00
  0.00000000E+00  0.00000000E+00  0.00000000E+00
  0.00000000E+00  0.00000000E+00  0.00000000E+00
  0.00000000E+00  0.00000000E+00  0.00000000E+00
  0.00000000E+00  0.00000000E+00  0.00000000E+00
  0.00000000E+00  0.00000000E+00  0.00000000E+00
  0.00000000E+00  0.00000000E+00  0.00000000E+00
  0.00000000E+00  0.00000000E+00  0.00000000E+00
  0.00000000E+00  0.00000000E+00  0.00000000E+00
  0.00000000E+00  0.00000000E+00  0.00000000E+00
  0.00000000E+00  0.00000000E+00  0.00000000E+00
  0.00000000E+00  0.00000000E+00  0.00000000E+00
  0.00000000E+00  0.00000000E+00  0.00000000E+00
  0.00000000E+00  0.00000000E+00  0.00000000E+00
  0.00000000E+00  0.00000000E+00  0.00000000E+00
  0.00000000E+00  0.00000000E+00  0.00000000E+00
  0.00000000E+00  0.00000000E+00  0.00000000E+00
  0.00000000E+00  0.00000000E+00  0.00000000E+00
  0.00000000E+00  0.00000000E+00  0.00000000E+00
  0.00000000E+00  0.00000000E+00  0.00000000E+00
  0.00000000E+00  0.00000000E+00  0.00000000E+00
  0.00000000E+00  0.00000000E+00  0.00000000E+00
  0.00000000E+00  0.00000000E+00  0.00000000E+00
  0.00000000E+00  0.00000000E+00  0.00000000E+00
  0.00000000E+00  0.00000000E+00  0.00000000E+00
  0.00000000E+00  0.00000000E+00  0.00000000E+00
  0.00000000E+00  0.00000000E+00  0.00000000E+00
  0.00000000E+00  0.00000000E+00  0.00000000E+00
  0.00000000E+00  0.00000000E+00  0.00000000E+00
  0.00000000E+00  0.00000000E+00  0.00000000E+00
  0.00000000E+00  0.00000000E+00  0.00000000E+00
  0.00000000E+00  0.00000000E+00  0.00000000E+00
  0.00000000E+00  0.00000000E+00  0.00000000E+00
  0.00000000E+00  0.00000000E+00  0.00000000E+00
  0.00000000E+00  0.00000000E+00  0.00000000E+00
  0.00000000E+00  0.00000000E+00  0.00000000E+00
  0.00000000E+00  0.00000000E+00  0.00000000E+00
  0.00000000E+00  0.00000000E+00  0.00000000E+00
  0.00000000E+00  0.00000000E+00  0.00000000E+00
  0.00000000E+00  0.00000000E+00  0.00000000E+00
  0.00000000E+00  0.00000000E+00  0.00000000E+00
  0.00000000E+00  0.00000000E+00  0.00000000E+00
  0.00000000E+00  0.00000000E+00  0.00000000E+00
  0.00000000E+00  0.00000000E+00  0.00000000E+00
  0.00000000E+00  0.00000000E+00  0.00000000E+00
  0.00000000E+00  0.00000000E+00  0.00000000E+00
  0.00000000E+00  0.00000000E+00  0.00000000E+00
  0.00000000E+00  0.00000000E+00  0.00000000E+00
  0.00000000E+00  0.00000000E+00  0.00000000E+00
  0.00000000E+00  0.00000000E+00  0.00000000E+00
  0.00000000E+00  0.00000000E+00  0.00000000E+00
  0.00000000E+00  0.00000000E+00  0.00000000E+00
  0.00000000E+00  0.00000000E+00  0.00000000E+00
