Primitive Cell                          
   1.00000000000000     
    30.3775446358456485   -0.0017615367120500    0.0000000000000000
   -15.1903006071511975   26.3230863854020427    0.0000000000000000
     0.0000000000000000    0.0000000000000000   20.0000000000000000
   N    C    H 
    18    72    36
Direct
  0.0439234990409076  0.5195036258827272  0.5757344644909637
  0.0439465947776014  0.5196517799997480  0.4559149771372191
  0.2546671898582389  0.7188728976389811  0.5753981444683447
  0.3025493319103347  0.5305041958943946  0.5752333201346289
  0.2546628679251626  0.7188746200189726  0.4560992908453940
  0.3022550072584167  0.5301211697772317  0.4559796188800291
  0.5021140322281070  0.9774072631901447  0.5761093361349268
  0.5021629150783085  0.5194310231066410  0.5753888458983667
  0.4908884325656402  0.7667230275234616  0.5750948196393253
  0.7772639982025566  0.2919530823017809  0.5752489268814784
  0.5412643610450232  0.2439776117913084  0.5753276821856872
  0.7293270386931567  0.4798900165542079  0.5753588420870770
  0.5020300281758239  0.9772669546822854  0.4562820206650500
  0.5022736547467019  0.5195610869342673  0.4555776923923034
  0.4907941714339472  0.7665890039907808  0.4558134506123750
  0.7771345469688953  0.2919622630399985  0.4559367730250869
  0.5410319850829950  0.2438050816818702  0.4560533928971253
  0.7294985756625181  0.4802636487194647  0.4560619463860220
  0.1506300642907945  0.5334383238427662  0.5156900264390956
  0.1239660455049929  0.5600663600856066  0.5157755090230935
  0.1498724676199927  0.6133166919690538  0.5157523529735428
  0.0671601962065580  0.5313190120204325  0.5158275145339815
  0.2029017238931843  0.6401867153076424  0.5157610475215506
  0.2291937296242992  0.6133456330947524  0.5157952147094349
  0.2038028688849209  0.5601280545709812  0.5157229747207950
  0.2993939231604799  0.7623582531995297  0.5748119201246169
  0.2371613812421245  0.6965893652170152  0.5157472629311002
  0.2590914184499411  0.5318339616164351  0.5747508136357808
  0.2993656220422594  0.7623898148174320  0.4566763956242070
  0.2587944477691053  0.5314451340106459  0.4566414942593369
  0.2378316451379021  0.5380789907587626  0.5157101450295869
  0.3247173655965980  0.5350901117682412  0.5155514010254478
  0.3268737897518790  0.7835329349054660  0.5157396324895558
  0.4639432878262326  0.8184720001204369  0.5155329118964929
  0.4108047711701772  0.7921909940106673  0.5155243933077855
  0.3829397414665934  0.8175599877225039  0.5157578617337890
  0.4093844162083613  0.8706977176124724  0.5160573684967602
  0.4626758127752737  0.8973543517371567  0.5161417276234985
  0.4900726518618512  0.8714803696491344  0.5158580349201429
  0.3811761020351838  0.5572982508795690  0.5154817023175440
  0.4079237817054278  0.6104189201740979  0.5155508421937398
  0.4611618670780899  0.6383622459402289  0.5155721819428578
  0.4879895641219960  0.6120322452544187  0.5155098346365037
  0.4614792602879803  0.5587710509066355  0.5154940771989587
  0.4082000970102939  0.5312933859482740  0.5154820253826884
  0.8289577490304652  0.3705652384003244  0.5155931935876126
  0.8026759533601435  0.3974107747122630  0.5155601536792815
  0.8281294359857796  0.4506215697122613  0.5155887652707989
  0.8812891440613555  0.4772732780196023  0.5156366166447413
  0.9082071964691352  0.4507625443564720  0.5156969617611438
  0.8819852849699217  0.3973733732449460  0.5156741526939328
  0.5681302312510752  0.1921924080766999  0.5157026015630422
  0.6212636458555139  0.2184824886612944  0.5156635714952102
  0.6491013060379132  0.1930894924899604  0.5157177477676527
  0.6226615394729791  0.1399474972943509  0.5158276090334226
  0.5692239612487882  0.1130141814988903  0.5158578326149268
  0.5419919784946927  0.1391927611511008  0.5157861420824901
  0.6507032097175340  0.4530009651071225  0.5156254338992241
  0.6238659236703441  0.3998835957873865  0.5157098830698601
  0.5706229105577023  0.3720807837828772  0.5155964548266994
  0.5439286363819420  0.3985600013600177  0.5155044319065141
  0.5704331120417763  0.4519765046038913  0.5154684919663524
  0.6238443237807161  0.4791576266031257  0.5154868306728062
  0.9930365867724191  0.4937239112797371  0.5750005195475438
  0.9646060374529739  0.4793694105777107  0.5157556539816497
  0.5272923718420515  0.0282717433029305  0.5752670440682195
  0.5413907044431454  0.0566362828859255  0.5159696465230965
  0.5277464247688926  0.4941346168354741  0.5746815416372684
  0.5419741767402755  0.4799165826575944  0.5154496329563045
  0.4895595088441027  0.7219532146132437  0.5745859739326846
  0.4860863565081388  0.7841865840930922  0.5154334752157439
  0.7326017932320426  0.2483972174952811  0.5747279061647887
  0.7946875708979206  0.3141763150648416  0.5155813716000708
  0.5423866628145078  0.2886328906000841  0.5747427185965037
  0.5459241263458310  0.2264116780630161  0.5156967734734650
  0.7728909892740461  0.4787887655803615  0.5747873754222965
  0.7071420652225697  0.4752578234773210  0.5156883543034283
  0.9930749537082519  0.4938584220505575  0.4565561212718734
  0.5272111431204891  0.0281267075412615  0.4568172042134151
  0.4906447710706701  0.9541284696371974  0.5162299961748573
  0.5278536345997651  0.4942613545548227  0.4562444661541889
  0.4904015628668006  0.5308999343981782  0.5154898339535805
  0.4895092237721173  0.7218500786667477  0.4564549731429963
  0.4831419708313760  0.6943969570987392  0.5155614629169634
  0.7325359789126935  0.2483572192350891  0.4565333397450715
  0.7051492497644318  0.2271435084357378  0.5156631599111563
  0.5421912682556425  0.2884903710235136  0.4565802714270362
  0.5485819506204663  0.3160296213615510  0.5156250724105362
  0.7730692173304803  0.4791685218675710  0.4566033247458066
  0.7941535627733600  0.4726995673638825  0.5156522347199370
  0.1298283773406013  0.4919875567201260  0.5156171270983947
  0.1285979662707888  0.6334806506410686  0.5157307529975839
  0.2706875512637055  0.6343581866805366  0.5158257841577196
  0.2416720123297935  0.5299831414698417  0.6233227270841866
  0.2411387461387235  0.5292904489476129  0.4081583764534713
  0.3149779084374913  0.7798434752180228  0.6233423935976958
  0.3148805308007141  0.7799419494084603  0.4081543794938582
  0.3887147042472066  0.8914886771030197  0.5161617177489788
  0.5315155557231748  0.8927525706077688  0.5158871213184071
  0.3903480518068463  0.7507118799873069  0.5153879515837332
  0.5294573172221035  0.6327696997495593  0.5154683030678484
  0.3881447381540966  0.4898742325828991  0.5154878184373786
  0.3867959464673731  0.6307823293073795  0.5155696533405205
  0.9021133019232295  0.5187250078451839  0.5156593470510700
  0.9032063919482596  0.3771459521533203  0.5156928561968854
  0.7611823640543136  0.3764241397283499  0.5155007084211718
  0.6433383180615095  0.1191579064825419  0.5158744834124604
  0.5005406016456035  0.1179469609848596  0.5158182563823246
  0.6417350811991867  0.2599569641373733  0.5155877655576617
  0.5024587669909977  0.3779104994080384  0.5154685314412575
  0.6440553319187714  0.5205915883165346  0.5153968859381450
  0.6448800275288988  0.3794077438729246  0.5158371891975690
  0.9739563421749509  0.4839927004841869  0.6236290211885915
  0.5366519446586580  0.0473837708449381  0.6238646852894405
  0.5374476237391690  0.4847707325959121  0.6233215742883402
  0.4915093360356622  0.7064309555100010  0.6231431781565462
  0.7170500816452048  0.2309572884372315  0.6232938167619579
  0.5404501238251243  0.3041870338345944  0.6232780345178810
  0.7903102891054203  0.4805878872207572  0.6233353632621217
  0.9740445946239902  0.4842199182609050  0.4078817254058151
  0.5364990327326993  0.0470727097135395  0.4080892122417552
  0.5376301884527450  0.4850048520182355  0.4075764053583484
  0.4914435698997082  0.7062611009202371  0.4079438739255963
  0.7170011170478361  0.2308453747116417  0.4079992354035298
  0.5401461038844957  0.3039597316197487  0.4080305071576618
  0.7906483821508630  0.4812872979826750  0.4080723552545678
 
  0.00000000E+00  0.00000000E+00  0.00000000E+00
  0.00000000E+00  0.00000000E+00  0.00000000E+00
  0.00000000E+00  0.00000000E+00  0.00000000E+00
  0.00000000E+00  0.00000000E+00  0.00000000E+00
  0.00000000E+00  0.00000000E+00  0.00000000E+00
  0.00000000E+00  0.00000000E+00  0.00000000E+00
  0.00000000E+00  0.00000000E+00  0.00000000E+00
  0.00000000E+00  0.00000000E+00  0.00000000E+00
  0.00000000E+00  0.00000000E+00  0.00000000E+00
  0.00000000E+00  0.00000000E+00  0.00000000E+00
  0.00000000E+00  0.00000000E+00  0.00000000E+00
  0.00000000E+00  0.00000000E+00  0.00000000E+00
  0.00000000E+00  0.00000000E+00  0.00000000E+00
  0.00000000E+00  0.00000000E+00  0.00000000E+00
  0.00000000E+00  0.00000000E+00  0.00000000E+00
  0.00000000E+00  0.00000000E+00  0.00000000E+00
  0.00000000E+00  0.00000000E+00  0.00000000E+00
  0.00000000E+00  0.00000000E+00  0.00000000E+00
  0.00000000E+00  0.00000000E+00  0.00000000E+00
  0.00000000E+00  0.00000000E+00  0.00000000E+00
  0.00000000E+00  0.00000000E+00  0.00000000E+00
  0.00000000E+00  0.00000000E+00  0.00000000E+00
  0.00000000E+00  0.00000000E+00  0.00000000E+00
  0.00000000E+00  0.00000000E+00  0.00000000E+00
  0.00000000E+00  0.00000000E+00  0.00000000E+00
  0.00000000E+00  0.00000000E+00  0.00000000E+00
  0.00000000E+00  0.00000000E+00  0.00000000E+00
  0.00000000E+00  0.00000000E+00  0.00000000E+00
  0.00000000E+00  0.00000000E+00  0.00000000E+00
  0.00000000E+00  0.00000000E+00  0.00000000E+00
  0.00000000E+00  0.00000000E+00  0.00000000E+00
  0.00000000E+00  0.00000000E+00  0.00000000E+00
  0.00000000E+00  0.00000000E+00  0.00000000E+00
  0.00000000E+00  0.00000000E+00  0.00000000E+00
  0.00000000E+00  0.00000000E+00  0.00000000E+00
  0.00000000E+00  0.00000000E+00  0.00000000E+00
  0.00000000E+00  0.00000000E+00  0.00000000E+00
  0.00000000E+00  0.00000000E+00  0.00000000E+00
  0.00000000E+00  0.00000000E+00  0.00000000E+00
  0.00000000E+00  0.00000000E+00  0.00000000E+00
  0.00000000E+00  0.00000000E+00  0.00000000E+00
  0.00000000E+00  0.00000000E+00  0.00000000E+00
  0.00000000E+00  0.00000000E+00  0.00000000E+00
  0.00000000E+00  0.00000000E+00  0.00000000E+00
  0.00000000E+00  0.00000000E+00  0.00000000E+00
  0.00000000E+00  0.00000000E+00  0.00000000E+00
  0.00000000E+00  0.00000000E+00  0.00000000E+00
  0.00000000E+00  0.00000000E+00  0.00000000E+00
  0.00000000E+00  0.00000000E+00  0.00000000E+00
  0.00000000E+00  0.00000000E+00  0.00000000E+00
  0.00000000E+00  0.00000000E+00  0.00000000E+00
  0.00000000E+00  0.00000000E+00  0.00000000E+00
  0.00000000E+00  0.00000000E+00  0.00000000E+00
  0.00000000E+00  0.00000000E+00  0.00000000E+00
  0.00000000E+00  0.00000000E+00  0.00000000E+00
  0.00000000E+00  0.00000000E+00  0.00000000E+00
  0.00000000E+00  0.00000000E+00  0.00000000E+00
  0.00000000E+00  0.00000000E+00  0.00000000E+00
  0.00000000E+00  0.00000000E+00  0.00000000E+00
  0.00000000E+00  0.00000000E+00  0.00000000E+00
  0.00000000E+00  0.00000000E+00  0.00000000E+00
  0.00000000E+00  0.00000000E+00  0.00000000E+00
  0.00000000E+00  0.00000000E+00  0.00000000E+00
  0.00000000E+00  0.00000000E+00  0.00000000E+00
  0.00000000E+00  0.00000000E+00  0.00000000E+00
  0.00000000E+00  0.00000000E+00  0.00000000E+00
  0.00000000E+00  0.00000000E+00  0.00000000E+00
  0.00000000E+00  0.00000000E+00  0.00000000E+00
  0.00000000E+00  0.00000000E+00  0.00000000E+00
  0.00000000E+00  0.00000000E+00  0.00000000E+00
  0.00000000E+00  0.00000000E+00  0.00000000E+00
  0.00000000E+00  0.00000000E+00  0.00000000E+00
  0.00000000E+00  0.00000000E+00  0.00000000E+00
  0.00000000E+00  0.00000000E+00  0.00000000E+00
  0.00000000E+00  0.00000000E+00  0.00000000E+00
  0.00000000E+00  0.00000000E+00  0.00000000E+00
  0.00000000E+00  0.00000000E+00  0.00000000E+00
  0.00000000E+00  0.00000000E+00  0.00000000E+00
  0.00000000E+00  0.00000000E+00  0.00000000E+00
  0.00000000E+00  0.00000000E+00  0.00000000E+00
  0.00000000E+00  0.00000000E+00  0.00000000E+00
  0.00000000E+00  0.00000000E+00  0.00000000E+00
  0.00000000E+00  0.00000000E+00  0.00000000E+00
  0.00000000E+00  0.00000000E+00  0.00000000E+00
  0.00000000E+00  0.00000000E+00  0.00000000E+00
  0.00000000E+00  0.00000000E+00  0.00000000E+00
  0.00000000E+00  0.00000000E+00  0.00000000E+00
  0.00000000E+00  0.00000000E+00  0.00000000E+00
  0.00000000E+00  0.00000000E+00  0.00000000E+00
  0.00000000E+00  0.00000000E+00  0.00000000E+00
  0.00000000E+00  0.00000000E+00  0.00000000E+00
  0.00000000E+00  0.00000000E+00  0.00000000E+00
  0.00000000E+00  0.00000000E+00  0.00000000E+00
  0.00000000E+00  0.00000000E+00  0.00000000E+00
  0.00000000E+00  0.00000000E+00  0.00000000E+00
  0.00000000E+00  0.00000000E+00  0.00000000E+00
  0.00000000E+00  0.00000000E+00  0.00000000E+00
  0.00000000E+00  0.00000000E+00  0.00000000E+00
  0.00000000E+00  0.00000000E+00  0.00000000E+00
  0.00000000E+00  0.00000000E+00  0.00000000E+00
  0.00000000E+00  0.00000000E+00  0.00000000E+00
  0.00000000E+00  0.00000000E+00  0.00000000E+00
  0.00000000E+00  0.00000000E+00  0.00000000E+00
  0.00000000E+00  0.00000000E+00  0.00000000E+00
  0.00000000E+00  0.00000000E+00  0.00000000E+00
  0.00000000E+00  0.00000000E+00  0.00000000E+00
  0.00000000E+00  0.00000000E+00  0.00000000E+00
  0.00000000E+00  0.00000000E+00  0.00000000E+00
  0.00000000E+00  0.00000000E+00  0.00000000E+00
  0.00000000E+00  0.00000000E+00  0.00000000E+00
  0.00000000E+00  0.00000000E+00  0.00000000E+00
  0.00000000E+00  0.00000000E+00  0.00000000E+00
  0.00000000E+00  0.00000000E+00  0.00000000E+00
  0.00000000E+00  0.00000000E+00  0.00000000E+00
  0.00000000E+00  0.00000000E+00  0.00000000E+00
  0.00000000E+00  0.00000000E+00  0.00000000E+00
  0.00000000E+00  0.00000000E+00  0.00000000E+00
  0.00000000E+00  0.00000000E+00  0.00000000E+00
  0.00000000E+00  0.00000000E+00  0.00000000E+00
  0.00000000E+00  0.00000000E+00  0.00000000E+00
  0.00000000E+00  0.00000000E+00  0.00000000E+00
  0.00000000E+00  0.00000000E+00  0.00000000E+00
  0.00000000E+00  0.00000000E+00  0.00000000E+00
  0.00000000E+00  0.00000000E+00  0.00000000E+00
  0.00000000E+00  0.00000000E+00  0.00000000E+00
  0.00000000E+00  0.00000000E+00  0.00000000E+00
