Primitive Cell                          
   1.00000000000000     
    29.6601575915311280   -0.0176558355718675    0.0000000000000000
   -14.8452671426496430   25.7093991095124430    0.0000000000000000
     0.0000000000000000    0.0000000000000000   20.0000000000000000
   H    N    C    O 
    30    12    54    12
Direct
  0.2920613725256018  0.5702290443421347  0.4983915052776098
  0.4306201523912208  0.7219318371191790  0.4990695771462796
  0.2788206786143874  0.7085891770560835  0.4976978035040602
  0.7210106243322301  0.4298188660344096  0.5093513734732085
  0.5698690128158361  0.2909257911123788  0.5090202626229825
  0.7088362592363140  0.2788676069818408  0.5084229778215033
  0.5328890612052177  0.1411841379771275  0.5625496280594362
  0.5111615701375953  0.9751871747897241  0.6204247142962700
  0.4276091472042154  0.7876198611416996  0.5802840716218967
  0.6083813932679831  0.4671567968267567  0.5631598810504457
  0.4645281313933438  0.4893252536642052  0.6207076674243837
  0.3607429712248660  0.5732310745196898  0.5810610475341349
  0.8589602683492359  0.3917145497169088  0.5628107665406361
  0.0255170392725930  0.5352807767853918  0.6209066667549621
  0.2131047174877878  0.6394389786920769  0.5802635296652099
  0.4711269830158429  0.9519494303002105  0.4106316188046932
  0.4256219872989746  0.8560710997711567  0.4288065703806794
  0.6238626324747898  0.1197834219283891  0.4108869230665348
  0.5724516046666892  0.0242898639911431  0.4282291230776565
  0.6463241268898727  0.2077033825125767  0.4411261559343487
  0.4806397581834929  0.5288650945729430  0.4107758794177769
  0.4306045743039988  0.5746726022473823  0.4292673952986092
  0.4958486140235934  0.3760988859496166  0.4115811474413675
  0.4518944863166112  0.4276254802867641  0.4285315842694644
  0.5613241316240831  0.3536901833040744  0.4418655802148663
  0.0481582710599398  0.5201328855294776  0.4104436171337795
  0.1441597537551971  0.5702852284915920  0.4282448476254714
  0.8803047708675678  0.5045059929201301  0.4118693031355036
  0.9758967713999454  0.5486027578829749  0.4289572879616088
  0.7923622498703864  0.4390273591558795  0.4421218199203025
  0.3787134706149473  0.7754404434222977  0.4989494801730459
  0.2251778125152839  0.6032603164312036  0.4982886855072621
  0.3975419845551542  0.6220710348071137  0.4997086448437358
  0.6027385837272732  0.2247980803079841  0.5082454146781430
  0.7750980844557205  0.3778891993858551  0.5084719779430458
  0.6219757928572847  0.3969653132801341  0.5092375711133599
  0.4678112771421965  0.0423153853329481  0.5869981149453167
  0.4646784396168684  0.8779613102038937  0.6558169424510467
  0.5748017230336657  0.5324982517448973  0.5869679188863159
  0.4143538350601119  0.5362749747432360  0.6564059052156352
  0.9579882807173519  0.4253930510512944  0.5866642259891606
  0.1229331531723830  0.5851761934152151  0.6560295349741310
  0.3571153282470902  0.7212896849556856  0.5013838756758986
  0.3025860585092630  0.6901086906028269  0.5004353060014708
  0.2794056599503776  0.6357938022422189  0.5010080910655290
  0.3105841004043199  0.6124873047767139  0.5008568960582593
  0.3649689343675888  0.6436722247055613  0.5018467245584404
  0.3883089406235172  0.6981560767036399  0.5012364063783110
  0.6354996663840353  0.2786955330072516  0.5038746686619859
  0.6899905090714427  0.3022252919685187  0.5043225309341750
  0.7211608529534672  0.3567257602335872  0.5040151348598698
  0.6976368572561071  0.3876304792124543  0.5048428664739077
  0.6430936681809172  0.3642347481886148  0.5044145125887027
  0.6121098421831235  0.3097979698085567  0.5046894620924292
  0.4413737981260937  0.8612148083728854  0.5338107813451458
  0.4663736657682804  0.8964299477938411  0.5866616054970777
  0.4924734028906954  0.9500915106250929  0.5774617101660056
  0.4941524032163684  0.9707062819033538  0.5140239125182404
  0.5222894467564316  0.0276513304671013  0.5032238640138829
  0.5123553766289959  0.0622786891438381  0.5400136238808315
  0.5415303352006831  0.1157943863950592  0.5325722071460319
  0.4150551314900639  0.8042062644426480  0.5401383846003114
  0.4204265620640157  0.5592447604734829  0.5343613777024103
  0.4307260738180005  0.5342761963478537  0.5871339866458598
  0.4580425577495362  0.5079556514033214  0.5777657507783047
  0.4767182547129707  0.5060488132960472  0.5142194313892787
  0.5054597417620244  0.4778253218024631  0.5034706265310618
  0.5500433242391054  0.4877484202292095  0.5403525890418734
  0.5743186654020107  0.4584956445885311  0.5331595880714630
  0.3898952631760793  0.5857356141882661  0.5408777625747589
  0.1393305270650842  0.5799643751374361  0.5335628465042532
  0.1042271712832132  0.5693045424731125  0.5867176289515967
  0.0504919305487519  0.5420044482900153  0.5777012123594361
  0.0296472992645107  0.5236419042786409  0.5141556717649678
  0.9726044159242875  0.4949126714413836  0.5035836484127003
  0.9379403921192520  0.4502292668505845  0.5402615953823329
  0.8843551001835053  0.4258695699368360  0.5329740236128018
  0.1964294073339730  0.6105558739377699  0.5398043090189972
  0.4701329912936032  0.9363411611281833  0.4603344612103584
  0.4443480625582836  0.8828834410731687  0.4703094911342021
  0.5819696582410359  0.1372203911295387  0.4853826978727227
  0.5922255134508134  0.1035911548910207  0.4473710650436402
  0.5630245021746774  0.0499171694823559  0.4564931202600775
  0.6133391693529830  0.1936382540855064  0.4765337407234824
  0.4662541227176078  0.5300108663953580  0.4605851792568600
  0.4387778483894422  0.5559871065746975  0.4707320378840123
  0.5552326351581982  0.4179649827740661  0.4861440003011097
  0.5113539198920947  0.4077482483024681  0.4480036656590798
  0.4869428508799416  0.4370270617992134  0.4568906776881221
  0.5802523406656448  0.3865567944918382  0.4774219536779327
  0.0639107505065297  0.5343624762935022  0.4602142904319066
  0.1174592126632632  0.5618861380366766  0.4699848379092160
  0.8628570173980350  0.4449747991766770  0.4860551027345821
  0.8965160854156196  0.4889873212642684  0.4481754740620474
  0.9502599908326488  0.5134771971015724  0.4571480220292514
  0.8063747749107009  0.4198951567003206  0.4772154978942496
  0.4748229916307167  0.0662364232666377  0.6402447858135289
  0.5013188274475482  0.9062578364465637  0.6933708763035256
  0.4264835866346530  0.0038041691678998  0.5690807171001495
  0.4264907474344710  0.8356352947132066  0.6719956793057165
  0.5919401401546551  0.5258688316933302  0.6402694899949353
  0.4056879256022583  0.4995705771411920  0.6939376095996650
  0.5775157242989764  0.5736658959358749  0.5686440581925609
  0.4107934783301559  0.5747456717576185  0.6726809915379093
  0.9341649258862432  0.4080883173211305  0.6399225143245744
  0.0949647569987633  0.5933816601001709  0.6943296526604072
  0.9964428707145672  0.4227092432556674  0.5681588762409717
  0.1651073608330549  0.5887043485459031  0.6715640331988340
 
  0.00000000E+00  0.00000000E+00  0.00000000E+00
  0.00000000E+00  0.00000000E+00  0.00000000E+00
  0.00000000E+00  0.00000000E+00  0.00000000E+00
  0.00000000E+00  0.00000000E+00  0.00000000E+00
  0.00000000E+00  0.00000000E+00  0.00000000E+00
  0.00000000E+00  0.00000000E+00  0.00000000E+00
  0.00000000E+00  0.00000000E+00  0.00000000E+00
  0.00000000E+00  0.00000000E+00  0.00000000E+00
  0.00000000E+00  0.00000000E+00  0.00000000E+00
  0.00000000E+00  0.00000000E+00  0.00000000E+00
  0.00000000E+00  0.00000000E+00  0.00000000E+00
  0.00000000E+00  0.00000000E+00  0.00000000E+00
  0.00000000E+00  0.00000000E+00  0.00000000E+00
  0.00000000E+00  0.00000000E+00  0.00000000E+00
  0.00000000E+00  0.00000000E+00  0.00000000E+00
  0.00000000E+00  0.00000000E+00  0.00000000E+00
  0.00000000E+00  0.00000000E+00  0.00000000E+00
  0.00000000E+00  0.00000000E+00  0.00000000E+00
  0.00000000E+00  0.00000000E+00  0.00000000E+00
  0.00000000E+00  0.00000000E+00  0.00000000E+00
  0.00000000E+00  0.00000000E+00  0.00000000E+00
  0.00000000E+00  0.00000000E+00  0.00000000E+00
  0.00000000E+00  0.00000000E+00  0.00000000E+00
  0.00000000E+00  0.00000000E+00  0.00000000E+00
  0.00000000E+00  0.00000000E+00  0.00000000E+00
  0.00000000E+00  0.00000000E+00  0.00000000E+00
  0.00000000E+00  0.00000000E+00  0.00000000E+00
  0.00000000E+00  0.00000000E+00  0.00000000E+00
  0.00000000E+00  0.00000000E+00  0.00000000E+00
  0.00000000E+00  0.00000000E+00  0.00000000E+00
  0.00000000E+00  0.00000000E+00  0.00000000E+00
  0.00000000E+00  0.00000000E+00  0.00000000E+00
  0.00000000E+00  0.00000000E+00  0.00000000E+00
  0.00000000E+00  0.00000000E+00  0.00000000E+00
  0.00000000E+00  0.00000000E+00  0.00000000E+00
  0.00000000E+00  0.00000000E+00  0.00000000E+00
  0.00000000E+00  0.00000000E+00  0.00000000E+00
  0.00000000E+00  0.00000000E+00  0.00000000E+00
  0.00000000E+00  0.00000000E+00  0.00000000E+00
  0.00000000E+00  0.00000000E+00  0.00000000E+00
  0.00000000E+00  0.00000000E+00  0.00000000E+00
  0.00000000E+00  0.00000000E+00  0.00000000E+00
  0.00000000E+00  0.00000000E+00  0.00000000E+00
  0.00000000E+00  0.00000000E+00  0.00000000E+00
  0.00000000E+00  0.00000000E+00  0.00000000E+00
  0.00000000E+00  0.00000000E+00  0.00000000E+00
  0.00000000E+00  0.00000000E+00  0.00000000E+00
  0.00000000E+00  0.00000000E+00  0.00000000E+00
  0.00000000E+00  0.00000000E+00  0.00000000E+00
  0.00000000E+00  0.00000000E+00  0.00000000E+00
  0.00000000E+00  0.00000000E+00  0.00000000E+00
  0.00000000E+00  0.00000000E+00  0.00000000E+00
  0.00000000E+00  0.00000000E+00  0.00000000E+00
  0.00000000E+00  0.00000000E+00  0.00000000E+00
  0.00000000E+00  0.00000000E+00  0.00000000E+00
  0.00000000E+00  0.00000000E+00  0.00000000E+00
  0.00000000E+00  0.00000000E+00  0.00000000E+00
  0.00000000E+00  0.00000000E+00  0.00000000E+00
  0.00000000E+00  0.00000000E+00  0.00000000E+00
  0.00000000E+00  0.00000000E+00  0.00000000E+00
  0.00000000E+00  0.00000000E+00  0.00000000E+00
  0.00000000E+00  0.00000000E+00  0.00000000E+00
  0.00000000E+00  0.00000000E+00  0.00000000E+00
  0.00000000E+00  0.00000000E+00  0.00000000E+00
  0.00000000E+00  0.00000000E+00  0.00000000E+00
  0.00000000E+00  0.00000000E+00  0.00000000E+00
  0.00000000E+00  0.00000000E+00  0.00000000E+00
  0.00000000E+00  0.00000000E+00  0.00000000E+00
  0.00000000E+00  0.00000000E+00  0.00000000E+00
  0.00000000E+00  0.00000000E+00  0.00000000E+00
  0.00000000E+00  0.00000000E+00  0.00000000E+00
  0.00000000E+00  0.00000000E+00  0.00000000E+00
  0.00000000E+00  0.00000000E+00  0.00000000E+00
  0.00000000E+00  0.00000000E+00  0.00000000E+00
  0.00000000E+00  0.00000000E+00  0.00000000E+00
  0.00000000E+00  0.00000000E+00  0.00000000E+00
  0.00000000E+00  0.00000000E+00  0.00000000E+00
  0.00000000E+00  0.00000000E+00  0.00000000E+00
  0.00000000E+00  0.00000000E+00  0.00000000E+00
  0.00000000E+00  0.00000000E+00  0.00000000E+00
  0.00000000E+00  0.00000000E+00  0.00000000E+00
  0.00000000E+00  0.00000000E+00  0.00000000E+00
  0.00000000E+00  0.00000000E+00  0.00000000E+00
  0.00000000E+00  0.00000000E+00  0.00000000E+00
  0.00000000E+00  0.00000000E+00  0.00000000E+00
  0.00000000E+00  0.00000000E+00  0.00000000E+00
  0.00000000E+00  0.00000000E+00  0.00000000E+00
  0.00000000E+00  0.00000000E+00  0.00000000E+00
  0.00000000E+00  0.00000000E+00  0.00000000E+00
  0.00000000E+00  0.00000000E+00  0.00000000E+00
  0.00000000E+00  0.00000000E+00  0.00000000E+00
  0.00000000E+00  0.00000000E+00  0.00000000E+00
  0.00000000E+00  0.00000000E+00  0.00000000E+00
  0.00000000E+00  0.00000000E+00  0.00000000E+00
  0.00000000E+00  0.00000000E+00  0.00000000E+00
  0.00000000E+00  0.00000000E+00  0.00000000E+00
  0.00000000E+00  0.00000000E+00  0.00000000E+00
  0.00000000E+00  0.00000000E+00  0.00000000E+00
  0.00000000E+00  0.00000000E+00  0.00000000E+00
  0.00000000E+00  0.00000000E+00  0.00000000E+00
  0.00000000E+00  0.00000000E+00  0.00000000E+00
  0.00000000E+00  0.00000000E+00  0.00000000E+00
  0.00000000E+00  0.00000000E+00  0.00000000E+00
  0.00000000E+00  0.00000000E+00  0.00000000E+00
  0.00000000E+00  0.00000000E+00  0.00000000E+00
  0.00000000E+00  0.00000000E+00  0.00000000E+00
  0.00000000E+00  0.00000000E+00  0.00000000E+00
  0.00000000E+00  0.00000000E+00  0.00000000E+00
