Primitive Cell                          
   1.00000000000000     
    25.4795660936693942    0.0266511150140262    0.0000000000000000
     0.0101278915905858   25.4728288582920150    0.0000000000000000
     0.0000000000000000    0.0000000000000000   20.0000000000000000
   C    H    N    O 
    58    38    12     2
Direct
  0.2172200211331869  0.9751962675775019  0.4488548055232968
  0.2716694298742439  0.9771550994251399  0.4506824183072808
  0.9805783716289156  0.7634561055259610  0.4481766659155042
  0.9817524068207533  0.7089942895461121  0.4502151774029954
  0.7116761081068006  0.9962628041695467  0.4566444792690376
  0.7660328919307204  0.9978107531814544  0.4512448540605547
  0.0010786323710121  0.2146008455008115  0.4517998438184989
  0.9989223042137567  0.2689809691528566  0.4570309960683900
  0.9885481927438988  0.4353044095513283  0.4794940086980759
  0.9892865982404686  0.4627786086492662  0.4184874838006465
  0.5454290177438850  0.9884158937093659  0.4796412934536320
  0.5180150120659235  0.9904758401503102  0.4186349057447103
  0.0883613317645313  0.1274725132388284  0.5018143884074320
  0.1273896234049019  0.0902259637376659  0.5016282230472626
  0.1030706835766964  0.0394296691487028  0.5011130095301155
  0.0388366044186697  0.1007853321328582  0.5003774343325773
  0.9887704964587201  0.1239430858346751  0.5011138285451011
  0.9406364037068187  0.0966013804494992  0.4999047261632512
  0.8816067601309925  0.0348784172687928  0.4992234740899590
  0.8529383850570085  0.0845004707811015  0.4997416177527114
  0.8897881202238764  0.1230323383466398  0.4996332044028904
  0.8565980821992696  0.9855064047971425  0.5008288501333880
  0.8820777250950229  0.9365666879225643  0.5004626812584618
  0.9462034763033316  0.8751305993728806  0.4996157042942713
  0.8965993295093142  0.8485370151211455  0.5013440417374824
  0.8576493396058353  0.8858639686765599  0.5014448788915757
  0.9962902853085751  0.8519256308892835  0.5007926314983990
  0.0444959027325851  0.8792045765841650  0.5009901126634020
  0.1035081643231877  0.9410232458242049  0.5007026738644811
  0.1321844533796437  0.8914175990757158  0.5019087345473494
  0.0953852540865583  0.8528410924839633  0.5014404131593651
  0.1285534233786763  0.9904355266465998  0.5015929854492569
  0.1870405083252678  0.9917331417075701  0.5040182811260294
  0.2977191860269670  0.9957833505078426  0.5081081038916935
  0.2676677834871271  0.0121005357478339  0.5633210816677874
  0.2130757614708259  0.0100625714934850  0.5613362270745199
  0.9977357451839097  0.7934792546502507  0.5031215719971414
  0.0002239819243073  0.6828105942182177  0.5076474472871411
  0.0174268329435137  0.7127031979106633  0.5625261763181584
  0.0161034945370133  0.7673230041580865  0.5603629181478169
  0.7981871614661955  0.9842036929628364  0.5058176145432256
  0.7743217316490174  0.9690740634413402  0.5660611944071192
  0.7198818005297483  0.9676626527811933  0.5716582424809857
  0.6877210781613528  0.9811177623598368  0.5171226976022467
  0.9869218558994319  0.1823800118323646  0.5060573376097182
  0.9708185604982660  0.2062304565555380  0.5659461832446908
  0.9827370457826277  0.2929111027810123  0.5171147650581247
  0.9688974615630599  0.2606842669543070  0.5714117664001463
  0.0022848692889781  0.6256930619045988  0.5110672455270233
  0.6307941768294398  0.9787830324635465  0.5250992087006807
  0.9796969231976576  0.3498550490170871  0.5249331297915560
  0.3547820385876790  0.9990735369530199  0.5113777774068922
  0.9877779203404486  0.4690006416747181  0.5367779197692499
  0.9872691079452309  0.5421617482873984  0.4697243045734893
  0.9902706833824624  0.4820608009544571  0.6548311796796753
  0.5117099740258340  0.9866736516886903  0.5368431155336140
  0.4386558903141733  0.9866931119227829  0.4696630387752805
  0.4984880973912738  0.9876099733004864  0.6548679324596520
  0.0094251715488767  0.2940298605540335  0.4149012840204520
  0.0133641046504209  0.1962916931161089  0.4049975593196606
  0.7843809152385433  0.0093840440148512  0.4042067224045738
  0.6866391114236876  0.0064760611280761  0.4143667970122067
  0.9667921045841794  0.7836504931037851  0.4033718275215890
  0.9690198053821248  0.6855206172450394  0.4076208599135995
  0.2952097763439596  0.9649824765552779  0.4078527014106825
  0.1971314088245038  0.9612190352489307  0.4040984050546896
  0.9907399834575372  0.4395247647528038  0.3725246479734352
  0.5413112241731639  0.9930324440863032  0.3727977627648045
  0.9564731769514481  0.2788235424478458  0.6183272408177061
  0.9599427374324918  0.1815588599823954  0.6083065049292316
  0.0929009651539872  0.1697941206532363  0.5027171394682668
  0.1694213605471404  0.0968282684982000  0.5018284092652507
  0.0220726504356605  0.0188787840032916  0.4994250243589491
  0.9631156519619850  0.9569752936623530  0.4985146784299772
  0.8835162596096140  0.1651925338374696  0.4992340625021470
  0.8105551386068726  0.0889072270533973  0.5000423425327938
  0.7989772226638365  0.9587357176299918  0.6086870466622258
  0.7017186227536669  0.9560559097449399  0.6188709946044639
  0.8155915102680851  0.8794069537082194  0.5021367299933743
  0.8918844103389532  0.8062464844068060  0.5024874128270227
  0.1745510527558807  0.8869417161416138  0.5029222159795026
  0.1018390800103290  0.8107116487270360  0.5012308127109222
  0.0291700337360012  0.7903210104363296  0.6032361269553235
  0.0316925611802148  0.6926925706933673  0.6073076889049887
  0.1900241018102093  0.0225626673479553  0.6044740605336543
  0.2875494007325585  0.0263793794747258  0.6081590927108351
  0.0192315862789982  0.6084024688090537  0.5569140532519654
  0.6166994201324911  0.9668371454501852  0.5747971527785083
  0.9674990361009392  0.3639117038996957  0.5745667885944101
  0.3716630635360616  0.0155817130530238  0.5577100391027159
  0.9560730920584533  0.5083242979984774  0.6552395792060324
  0.9901992378094917  0.4563642628835609  0.6987157678457692
  0.0261776764240125  0.5058337234438923  0.6534260647260766
  0.4724746407362161  0.9532971864740176  0.6544323087177801
  0.5241136155873178  0.9870495219824633  0.6988075945833572
  0.4744821478072083  0.0234486245054910  0.6541743864565817
  0.9876232391419535  0.5149226248298149  0.4121771896858064
  0.9901419163649763  0.3810930253890916  0.4757873970981095
  0.4659057895157375  0.9887394979160931  0.4121807789910861
  0.5996096506303914  0.9895906875558254  0.4759996736004624
  0.0497227308216353  0.0478245944918712  0.4997101579372512
  0.9347632307163707  0.0431252397690400  0.4989784121924288
  0.9354163651944489  0.9280644604576196  0.4988375490817489
  0.0503482403558166  0.9326749745444474  0.5001621251295276
  0.9875933614693295  0.5207754387059040  0.5316902731163111
  0.9856292528796260  0.5965555352103138  0.4628143755730676
  0.4599542450176202  0.9861170016920155  0.5316756098419830
  0.3843521254644173  0.9840685738580888  0.4626470550907982
  0.9882136976173044  0.4468432249078944  0.5982858405597256
  0.5338005934736003  0.9864786212159231  0.5983810505010752
 
  0.00000000E+00  0.00000000E+00  0.00000000E+00
  0.00000000E+00  0.00000000E+00  0.00000000E+00
  0.00000000E+00  0.00000000E+00  0.00000000E+00
  0.00000000E+00  0.00000000E+00  0.00000000E+00
  0.00000000E+00  0.00000000E+00  0.00000000E+00
  0.00000000E+00  0.00000000E+00  0.00000000E+00
  0.00000000E+00  0.00000000E+00  0.00000000E+00
  0.00000000E+00  0.00000000E+00  0.00000000E+00
  0.00000000E+00  0.00000000E+00  0.00000000E+00
  0.00000000E+00  0.00000000E+00  0.00000000E+00
  0.00000000E+00  0.00000000E+00  0.00000000E+00
  0.00000000E+00  0.00000000E+00  0.00000000E+00
  0.00000000E+00  0.00000000E+00  0.00000000E+00
  0.00000000E+00  0.00000000E+00  0.00000000E+00
  0.00000000E+00  0.00000000E+00  0.00000000E+00
  0.00000000E+00  0.00000000E+00  0.00000000E+00
  0.00000000E+00  0.00000000E+00  0.00000000E+00
  0.00000000E+00  0.00000000E+00  0.00000000E+00
  0.00000000E+00  0.00000000E+00  0.00000000E+00
  0.00000000E+00  0.00000000E+00  0.00000000E+00
  0.00000000E+00  0.00000000E+00  0.00000000E+00
  0.00000000E+00  0.00000000E+00  0.00000000E+00
  0.00000000E+00  0.00000000E+00  0.00000000E+00
  0.00000000E+00  0.00000000E+00  0.00000000E+00
  0.00000000E+00  0.00000000E+00  0.00000000E+00
  0.00000000E+00  0.00000000E+00  0.00000000E+00
  0.00000000E+00  0.00000000E+00  0.00000000E+00
  0.00000000E+00  0.00000000E+00  0.00000000E+00
  0.00000000E+00  0.00000000E+00  0.00000000E+00
  0.00000000E+00  0.00000000E+00  0.00000000E+00
  0.00000000E+00  0.00000000E+00  0.00000000E+00
  0.00000000E+00  0.00000000E+00  0.00000000E+00
  0.00000000E+00  0.00000000E+00  0.00000000E+00
  0.00000000E+00  0.00000000E+00  0.00000000E+00
  0.00000000E+00  0.00000000E+00  0.00000000E+00
  0.00000000E+00  0.00000000E+00  0.00000000E+00
  0.00000000E+00  0.00000000E+00  0.00000000E+00
  0.00000000E+00  0.00000000E+00  0.00000000E+00
  0.00000000E+00  0.00000000E+00  0.00000000E+00
  0.00000000E+00  0.00000000E+00  0.00000000E+00
  0.00000000E+00  0.00000000E+00  0.00000000E+00
  0.00000000E+00  0.00000000E+00  0.00000000E+00
  0.00000000E+00  0.00000000E+00  0.00000000E+00
  0.00000000E+00  0.00000000E+00  0.00000000E+00
  0.00000000E+00  0.00000000E+00  0.00000000E+00
  0.00000000E+00  0.00000000E+00  0.00000000E+00
  0.00000000E+00  0.00000000E+00  0.00000000E+00
  0.00000000E+00  0.00000000E+00  0.00000000E+00
  0.00000000E+00  0.00000000E+00  0.00000000E+00
  0.00000000E+00  0.00000000E+00  0.00000000E+00
  0.00000000E+00  0.00000000E+00  0.00000000E+00
  0.00000000E+00  0.00000000E+00  0.00000000E+00
  0.00000000E+00  0.00000000E+00  0.00000000E+00
  0.00000000E+00  0.00000000E+00  0.00000000E+00
  0.00000000E+00  0.00000000E+00  0.00000000E+00
  0.00000000E+00  0.00000000E+00  0.00000000E+00
  0.00000000E+00  0.00000000E+00  0.00000000E+00
  0.00000000E+00  0.00000000E+00  0.00000000E+00
  0.00000000E+00  0.00000000E+00  0.00000000E+00
  0.00000000E+00  0.00000000E+00  0.00000000E+00
  0.00000000E+00  0.00000000E+00  0.00000000E+00
  0.00000000E+00  0.00000000E+00  0.00000000E+00
  0.00000000E+00  0.00000000E+00  0.00000000E+00
  0.00000000E+00  0.00000000E+00  0.00000000E+00
  0.00000000E+00  0.00000000E+00  0.00000000E+00
  0.00000000E+00  0.00000000E+00  0.00000000E+00
  0.00000000E+00  0.00000000E+00  0.00000000E+00
  0.00000000E+00  0.00000000E+00  0.00000000E+00
  0.00000000E+00  0.00000000E+00  0.00000000E+00
  0.00000000E+00  0.00000000E+00  0.00000000E+00
  0.00000000E+00  0.00000000E+00  0.00000000E+00
  0.00000000E+00  0.00000000E+00  0.00000000E+00
  0.00000000E+00  0.00000000E+00  0.00000000E+00
  0.00000000E+00  0.00000000E+00  0.00000000E+00
  0.00000000E+00  0.00000000E+00  0.00000000E+00
  0.00000000E+00  0.00000000E+00  0.00000000E+00
  0.00000000E+00  0.00000000E+00  0.00000000E+00
  0.00000000E+00  0.00000000E+00  0.00000000E+00
  0.00000000E+00  0.00000000E+00  0.00000000E+00
  0.00000000E+00  0.00000000E+00  0.00000000E+00
  0.00000000E+00  0.00000000E+00  0.00000000E+00
  0.00000000E+00  0.00000000E+00  0.00000000E+00
  0.00000000E+00  0.00000000E+00  0.00000000E+00
  0.00000000E+00  0.00000000E+00  0.00000000E+00
  0.00000000E+00  0.00000000E+00  0.00000000E+00
  0.00000000E+00  0.00000000E+00  0.00000000E+00
  0.00000000E+00  0.00000000E+00  0.00000000E+00
  0.00000000E+00  0.00000000E+00  0.00000000E+00
  0.00000000E+00  0.00000000E+00  0.00000000E+00
  0.00000000E+00  0.00000000E+00  0.00000000E+00
  0.00000000E+00  0.00000000E+00  0.00000000E+00
  0.00000000E+00  0.00000000E+00  0.00000000E+00
  0.00000000E+00  0.00000000E+00  0.00000000E+00
  0.00000000E+00  0.00000000E+00  0.00000000E+00
  0.00000000E+00  0.00000000E+00  0.00000000E+00
  0.00000000E+00  0.00000000E+00  0.00000000E+00
  0.00000000E+00  0.00000000E+00  0.00000000E+00
  0.00000000E+00  0.00000000E+00  0.00000000E+00
  0.00000000E+00  0.00000000E+00  0.00000000E+00
  0.00000000E+00  0.00000000E+00  0.00000000E+00
  0.00000000E+00  0.00000000E+00  0.00000000E+00
  0.00000000E+00  0.00000000E+00  0.00000000E+00
  0.00000000E+00  0.00000000E+00  0.00000000E+00
  0.00000000E+00  0.00000000E+00  0.00000000E+00
  0.00000000E+00  0.00000000E+00  0.00000000E+00
  0.00000000E+00  0.00000000E+00  0.00000000E+00
  0.00000000E+00  0.00000000E+00  0.00000000E+00
  0.00000000E+00  0.00000000E+00  0.00000000E+00
  0.00000000E+00  0.00000000E+00  0.00000000E+00
  0.00000000E+00  0.00000000E+00  0.00000000E+00
