Primitive Cell                          
   1.00000000000000     
    37.9614902632482512   -0.0230067608736858    0.0000000000000000
   -19.0005818080440640   32.9469857882774733    0.0000000000000000
     0.0000000000000000    0.0000000000000000   20.0000000000000000
   H    C    N 
    36   108    72
Direct
  0.4679873720897731  0.7145107711019421  0.4693835873815004
  0.2627258932422478  0.7754870270161760  0.4713852909525258
  0.2006493975899843  0.5028090901215307  0.5530509317979337
  0.4806624286874168  0.2808336281574455  0.5681553659723590
  0.6984601925203151  0.2210041062856831  0.5609425925145857
  0.7562588726008173  0.4941690027434831  0.5576891562237023
  0.4114480301483283  0.5010130685893941  0.4090224667670839
  0.4152563448841278  0.8123189794852834  0.4890761153730310
  0.1653289447746005  0.6231510263091593  0.4817229011427173
  0.5433466443607458  0.4933902603537277  0.4283694350005192
  0.4851227269942768  0.0751671779398961  0.4151834961107355
  0.9037725285785783  0.4310797120903374  0.4064497524303832
  0.5717167752001444  0.6208106973918461  0.3662546394224577
  0.3554768943925453  0.9674598775593566  0.3767824518675909
  0.0122820285139795  0.4091161627455264  0.3667798653400851
  0.3862597849528058  0.3713573500091130  0.3736602206307182
  0.5981407399389695  0.0303440114686637  0.3770912593422580
  0.9447565739948942  0.5875438929791628  0.3671116490352091
  0.5967220399315778  0.7769132326160459  0.5119089301186648
  0.1973904488794531  0.8381235372184648  0.5190406940215269
  0.1379561183210640  0.3798609207753643  0.4785286071671067
  0.3586366757189197  0.2191575586276429  0.4887256856668785
  0.7576909700804251  0.1596563665285515  0.4762808132659586
  0.8170092041101782  0.6166729956902941  0.4812795319064591
  0.3563805293956364  0.5611820205864575  0.5118998757963809
  0.4787232055328232  0.9408568456008055  0.5310372126504745
  0.0349354853413146  0.5566795121119839  0.5068974329620062
  0.5988893036406111  0.4361847026827590  0.5385020471279347
  0.5410710562873859  0.1827099508497341  0.5383608063907133
  0.7948419331276213  0.3766879263723837  0.5268016735396372
  0.6294951114997716  0.6860110316199268  0.5471156076462904
  0.2912504457985747  0.9667640431034599  0.5551215860865497
  0.0114256970659596  0.3440823114187879  0.5439748968734577
  0.3240906664356160  0.3127821791464100  0.5561824843163095
  0.6680727677244320  0.0360059679992943  0.5508741137975264
  0.9409287809359270  0.6510060572233201  0.5431502817661169
  0.5589396606459687  0.6612441136622849  0.4658311434563345
  0.5300413106258191  0.6998439576347550  0.4832631410088268
  0.4902071410973434  0.6324086238965236  0.4631336426607788
  0.3153628663181536  0.9179796610524136  0.4814878039631338
  0.2760477781440329  0.8505169302077107  0.4977989143967676
  0.3446342795985657  0.8790175426912370  0.4945485485486145
  0.0606440915156341  0.4176811179927640  0.4734817307818275
  0.1267236969935226  0.4454444865284586  0.5027463704313817
  0.0993098538314214  0.4858149804774570  0.4872536913549865
  0.3964314535449276  0.3346577358876885  0.4823743573785038
  0.4241062631404020  0.2964289087319045  0.5117421950539125
  0.4651000255280309  0.3631230256092479  0.4877955362781989
  0.6415852341215853  0.0824372073941504  0.4770852419729934
  0.6810677538731440  0.1487767032126328  0.5029670792647210
  0.6142466444893557  0.1235792001077129  0.4799699249185068
  0.8939669386471252  0.5780727677765256  0.4701202478948971
  0.8280809526797199  0.5505594304486223  0.5000856310726647
  0.8533311231197303  0.5095594431174675  0.4731591809010993
  0.8948891703356452  0.3339084419035245  0.4701282402932847
  0.8290940948051286  0.2954746696002104  0.4992248915496731
  0.8545774545327944  0.3620298807778966  0.4756098464198431
  0.3975151495949092  0.0838349484948537  0.4824042981038232
  0.4250586108271222  0.1496208182741157  0.5110206405783018
  0.4660593203690482  0.1240628628861913  0.4866804859066605
  0.6430996479307396  0.5798902693729886  0.4831781571782230
  0.6812601641593830  0.5518303590005402  0.5092551565907257
  0.6137725638161058  0.5114694755491058  0.4909448496567563
  0.0596845497417817  0.6635337184076775  0.4747939364801255
  0.1272719918373539  0.7019665333319267  0.4890936709095968
  0.0978376452610021  0.6334670808592904  0.4884010299598671
  0.5608814949495198  0.9166463602250445  0.4870142153204569
  0.5315177163911713  0.8489653211557240  0.4988944514131575
  0.4928412231378303  0.8788036002340931  0.5035321367564123
  0.3121875044882501  0.4161239111923791  0.4725634054585939
  0.2744006295249974  0.4449771322462652  0.4962373159637394
  0.3411897331329712  0.4846802981607254  0.4715783103396731
  0.4968057189065220  0.7419512649190594  0.4804243999276068
  0.5322186697340641  0.7395114719473455  0.4901327103751214
  0.2347001844263801  0.7759260023106052  0.4818192970562691
  0.2362703395270600  0.8127969044643919  0.4969438122135799
  0.2002383929752085  0.4756768092498405  0.5340471376831530
  0.1637008365033736  0.4424512564215490  0.5110891154143289
  0.4539888240195751  0.2538972425025179  0.5483858232318966
  0.4208985404124661  0.2566638256289693  0.5230012144565421
  0.7249548151166110  0.2209592355538845  0.5396956639845385
  0.7212870832119478  0.1850290833858566  0.5131720843401908
  0.7561415488969772  0.5212017160935858  0.5395058614995278
  0.7918635181331339  0.5541084669300389  0.5135280020051312
  0.4129694812987026  0.5276724256467134  0.4325199641554249
  0.4492229678587520  0.5946671625570730  0.4591977832030096
  0.4160029237790823  0.8411318701247552  0.4968772206047802
  0.3828271010078694  0.8769610772659036  0.5024242824931662
  0.1362889780300804  0.5948995538108264  0.4866497826394252
  0.1007817064680410  0.5259061193678747  0.4911665280464206
  0.5419896326525304  0.4673407147574977  0.4538777160362173
  0.5061148797731860  0.4008589121880490  0.4839483474348825
  0.5108550962646206  0.0985966876298363  0.4432799532427723
  0.5768667116715704  0.1274965663878120  0.4760744537016492
  0.8798508703828745  0.4326442186419754  0.4343600447813714
  0.8498723903243643  0.4685676978242128  0.4679143179147971
  0.5910861667247502  0.6264317900669383  0.4099769964960203
  0.5926324601149418  0.6524848789017668  0.4613905532774751
  0.3501761246682449  0.9827420954516342  0.4186012232507963
  0.3241685987414726  0.9601515629102337  0.4714708382934205
  0.9965662175977599  0.3881960061375977  0.4080119782055078
  0.0186986021080315  0.3843926710668981  0.4612779731981007
  0.3658875546879656  0.3673349860085864  0.4152301542583459
  0.3630824137455448  0.3433036673611340  0.4707813305082453
  0.6050798815130634  0.0161479167193548  0.4186282045391181
  0.6322558450038116  0.0400281373558968  0.4693962973765906
  0.9594404570268509  0.6085065337339088  0.4086970759841009
  0.9361358635246191  0.6114305300704856  0.4608684345216147
  0.5679395936477221  0.7762654948301346  0.5036710420181691
  0.5328319440050535  0.8101901880380709  0.4969076736048237
  0.1987537251163189  0.8107100502571498  0.5077475994772698
  0.1658234101671425  0.7423242789235971  0.4915296576623476
  0.1655200866501190  0.4076756428867441  0.4933240210060461
  0.2340474678387068  0.4420847957825842  0.5088349293242658
  0.3864480296526196  0.2198343042326840  0.5050606968037314
  0.4213303861316220  0.1865364936646472  0.5235630182185673
  0.7576785408783522  0.1869294723600703  0.4934878736442201
  0.7921001836885537  0.2549828777965146  0.5124624698541353
  0.7898333771531156  0.5890023868022567  0.4977856352673129
  0.7218991485498947  0.5549231504995547  0.5190434261316668
  0.3823806355304313  0.5609001025638207  0.4889726679926696
  0.3784628191352439  0.5245898279442400  0.4642289543667957
  0.4511387474696988  0.9122481443177932  0.5195780857048646
  0.4531682382589395  0.8769128587840598  0.5077575202694717
  0.0641856294760146  0.5581211639935475  0.5001548487825502
  0.0998915067465163  0.5957981923511895  0.4922658392722923
  0.5728159047526873  0.4357450297237406  0.5144351107524798
  0.5765128252319585  0.4713659036290352  0.4868806158118488
  0.5417476907015129  0.1581557300337266  0.5110493056897951
  0.5064103834496692  0.1275155927589751  0.4804732542512014
  0.8195323270858736  0.4024588367125972  0.5006013623328158
  0.8508155882728730  0.3986912094009298  0.4702953640910152
  0.6231486567480289  0.6628365767740547  0.5092874383304675
  0.6344992381085603  0.6136279829830755  0.4686746506612423
  0.3143413913220527  0.9821066998822658  0.5164670997370706
  0.3637949125887658  0.0410340421680360  0.4710795882186147
  0.9963400150038666  0.3521134987310717  0.5052801951578942
  0.9377456111736677  0.3430382437517778  0.4589061629157030
  0.3313908712654268  0.3345736955805094  0.5155320750623744
  0.3210804984306392  0.3820587930915025  0.4646934176422874
  0.6440209084158113  0.0194646213591128  0.5141172808701882
  0.5944046140690062  0.9593137059678938  0.4729359659227867
  0.9571533001802379  0.6437192738739270  0.5054671714054066
  0.0169341021589489  0.6545400341326939  0.4618978013720394
  0.5647679775380183  0.6981710993067765  0.4815734394764775
  0.4922535369809182  0.6676796340904119  0.4775482432011060
  0.5226773154166224  0.6279997010008458  0.4534021933614696
  0.2775955005423754  0.8866587538510728  0.4917101564070876
  0.3085872566171730  0.8453713001266649  0.5026948912921867
  0.3495055316387266  0.9155299951472529  0.4795014777090643
  0.0909151673230397  0.4111104290462038  0.4918125864275353
  0.1319514907917707  0.4832044004296776  0.5046233007677685
  0.0638776715063969  0.4543848553002476  0.4667992208665197
  0.3897155540545043  0.2982072957995712  0.5030906003257343
  0.4622839740571933  0.3282692223403245  0.5081012893716590
  0.4332151257952077  0.3673134010769488  0.4710581646670136
  0.6785543906265730  0.1122720489937805  0.4960406432102218
  0.6495627275562512  0.1556226251789425  0.4989386225495238
  0.6091731260173106  0.0869566570572786  0.4652295923492176
  0.8643229121862390  0.5847903866587174  0.4917841961152547
  0.8214731754716453  0.5124083085250462  0.4948139430329945
  0.8895404077620128  0.5413679605485129  0.4569500200857135
  0.8651515760618764  0.2973564095020720  0.4898343493704473
  0.8223008972432666  0.3268583450075653  0.4948128715152365
  0.8911830780127730  0.3668253392763603  0.4607018442919113
  0.3907942828415969  0.1135577031001986  0.5024598614057396
  0.4632723527993718  0.1563680426242655  0.5060494919748209
  0.4341376027494661  0.0875408933112567  0.4720842491885122
  0.6799233081379938  0.5862810516709729  0.5001237784821413
  0.6492657677109719  0.5138949503441523  0.5066648993001124
  0.6092900745298806  0.5435382039568424  0.4772262256397042
  0.0915262227065483  0.7010677592091454  0.4815032751940294
  0.1321537259798902  0.6693952569055952  0.4934292262425615
  0.0608724925614439  0.6289208097199008  0.4778379849223739
  0.5663568551165739  0.8845549243979463  0.4904262432808011
  0.4942814035340746  0.8443715184796474  0.5064892989924346
  0.5252677175123139  0.9157283103538845  0.4933271880394301
  0.2757867716105054  0.4103373116482061  0.4911572026384903
  0.3060605342949927  0.4827862316542522  0.4884364183283765
  0.3454951221195941  0.4521943914663851  0.4611679534591389
  0.4968239702068189  0.7768764668446551  0.4836455908379378
  0.1998775588388639  0.7408380337656837  0.4789254822757343
  0.2353608699730074  0.4757504192238571  0.5329149165682239
  0.4544676877206371  0.2191283408836071  0.5486771279071405
  0.7601069111518726  0.2559059117317730  0.5394816213924827
  0.7211956812652360  0.5213884132911275  0.5423694502943093
  0.4483422789014924  0.5623858331962381  0.4300534922015231
  0.3806182168869867  0.8408542529078602  0.4941144317304946
  0.1370411635257938  0.5600533527359417  0.4860811998907053
  0.5068743786831362  0.4324263331309055  0.4523410953984310
  0.5457656486127931  0.0983249819717429  0.4409682462532913
  0.8796298624554382  0.4675269992064983  0.4330642951559227
  0.6119668708296402  0.6070664097165590  0.4132528295256748
  0.3698515073657731  0.0230136098454139  0.4179290093819930
  0.9562242851572691  0.3675503715685764  0.4063824289329148
  0.3449046246796570  0.3865982389840852  0.4117950047327739
  0.5861975191121118  0.9758651171031403  0.4200419754382949
  0.9997842417246545  0.6300569842137023  0.4089087618515492
  0.5685408666542600  0.8117262404298913  0.5071025047718578
  0.1634129272229217  0.7756266468970594  0.5052516513634870
  0.2005058910554709  0.4072248867704928  0.4919485602486731
  0.3864219737250281  0.1846637556581996  0.5050282693057397
  0.7931963732783132  0.2217940199974393  0.4927307091778843
  0.7549671900597303  0.5896449222431031  0.5001289598471246
  0.4176465345666216  0.5960724304282934  0.4866564634835626
  0.4162504856674047  0.9125432137103999  0.5169440383293136
  0.0643267819228441  0.5231879531928172  0.4995957765201311
  0.5377040856647710  0.4003661328221426  0.5132886703538588
  0.5771145866287668  0.1583384937039369  0.5092265097742512
  0.8188622831278423  0.4373212663491870  0.4997877425043455
  0.6442445349005084  0.6431038289193225  0.5135968996702047
  0.3344789055235537  0.0229517426832260  0.5169555178207688
  0.9554240334124557  0.3313203203128623  0.5047405023411073
  0.3102566379028531  0.3543087994394511  0.5131524128930209
  0.6247861562873922  0.9786280399832208  0.5166319830430339
  0.9980657959730905  0.6654562304309621  0.5067306057995040
 
  0.00000000E+00  0.00000000E+00  0.00000000E+00
  0.00000000E+00  0.00000000E+00  0.00000000E+00
  0.00000000E+00  0.00000000E+00  0.00000000E+00
  0.00000000E+00  0.00000000E+00  0.00000000E+00
  0.00000000E+00  0.00000000E+00  0.00000000E+00
  0.00000000E+00  0.00000000E+00  0.00000000E+00
  0.00000000E+00  0.00000000E+00  0.00000000E+00
  0.00000000E+00  0.00000000E+00  0.00000000E+00
  0.00000000E+00  0.00000000E+00  0.00000000E+00
  0.00000000E+00  0.00000000E+00  0.00000000E+00
  0.00000000E+00  0.00000000E+00  0.00000000E+00
  0.00000000E+00  0.00000000E+00  0.00000000E+00
  0.00000000E+00  0.00000000E+00  0.00000000E+00
  0.00000000E+00  0.00000000E+00  0.00000000E+00
  0.00000000E+00  0.00000000E+00  0.00000000E+00
  0.00000000E+00  0.00000000E+00  0.00000000E+00
  0.00000000E+00  0.00000000E+00  0.00000000E+00
  0.00000000E+00  0.00000000E+00  0.00000000E+00
  0.00000000E+00  0.00000000E+00  0.00000000E+00
  0.00000000E+00  0.00000000E+00  0.00000000E+00
  0.00000000E+00  0.00000000E+00  0.00000000E+00
  0.00000000E+00  0.00000000E+00  0.00000000E+00
  0.00000000E+00  0.00000000E+00  0.00000000E+00
  0.00000000E+00  0.00000000E+00  0.00000000E+00
  0.00000000E+00  0.00000000E+00  0.00000000E+00
  0.00000000E+00  0.00000000E+00  0.00000000E+00
  0.00000000E+00  0.00000000E+00  0.00000000E+00
  0.00000000E+00  0.00000000E+00  0.00000000E+00
  0.00000000E+00  0.00000000E+00  0.00000000E+00
  0.00000000E+00  0.00000000E+00  0.00000000E+00
  0.00000000E+00  0.00000000E+00  0.00000000E+00
  0.00000000E+00  0.00000000E+00  0.00000000E+00
  0.00000000E+00  0.00000000E+00  0.00000000E+00
  0.00000000E+00  0.00000000E+00  0.00000000E+00
  0.00000000E+00  0.00000000E+00  0.00000000E+00
  0.00000000E+00  0.00000000E+00  0.00000000E+00
  0.00000000E+00  0.00000000E+00  0.00000000E+00
  0.00000000E+00  0.00000000E+00  0.00000000E+00
  0.00000000E+00  0.00000000E+00  0.00000000E+00
  0.00000000E+00  0.00000000E+00  0.00000000E+00
  0.00000000E+00  0.00000000E+00  0.00000000E+00
  0.00000000E+00  0.00000000E+00  0.00000000E+00
  0.00000000E+00  0.00000000E+00  0.00000000E+00
  0.00000000E+00  0.00000000E+00  0.00000000E+00
  0.00000000E+00  0.00000000E+00  0.00000000E+00
  0.00000000E+00  0.00000000E+00  0.00000000E+00
  0.00000000E+00  0.00000000E+00  0.00000000E+00
  0.00000000E+00  0.00000000E+00  0.00000000E+00
  0.00000000E+00  0.00000000E+00  0.00000000E+00
  0.00000000E+00  0.00000000E+00  0.00000000E+00
  0.00000000E+00  0.00000000E+00  0.00000000E+00
  0.00000000E+00  0.00000000E+00  0.00000000E+00
  0.00000000E+00  0.00000000E+00  0.00000000E+00
  0.00000000E+00  0.00000000E+00  0.00000000E+00
  0.00000000E+00  0.00000000E+00  0.00000000E+00
  0.00000000E+00  0.00000000E+00  0.00000000E+00
  0.00000000E+00  0.00000000E+00  0.00000000E+00
  0.00000000E+00  0.00000000E+00  0.00000000E+00
  0.00000000E+00  0.00000000E+00  0.00000000E+00
  0.00000000E+00  0.00000000E+00  0.00000000E+00
  0.00000000E+00  0.00000000E+00  0.00000000E+00
  0.00000000E+00  0.00000000E+00  0.00000000E+00
  0.00000000E+00  0.00000000E+00  0.00000000E+00
  0.00000000E+00  0.00000000E+00  0.00000000E+00
  0.00000000E+00  0.00000000E+00  0.00000000E+00
  0.00000000E+00  0.00000000E+00  0.00000000E+00
  0.00000000E+00  0.00000000E+00  0.00000000E+00
  0.00000000E+00  0.00000000E+00  0.00000000E+00
  0.00000000E+00  0.00000000E+00  0.00000000E+00
  0.00000000E+00  0.00000000E+00  0.00000000E+00
  0.00000000E+00  0.00000000E+00  0.00000000E+00
  0.00000000E+00  0.00000000E+00  0.00000000E+00
  0.00000000E+00  0.00000000E+00  0.00000000E+00
  0.00000000E+00  0.00000000E+00  0.00000000E+00
  0.00000000E+00  0.00000000E+00  0.00000000E+00
  0.00000000E+00  0.00000000E+00  0.00000000E+00
  0.00000000E+00  0.00000000E+00  0.00000000E+00
  0.00000000E+00  0.00000000E+00  0.00000000E+00
  0.00000000E+00  0.00000000E+00  0.00000000E+00
  0.00000000E+00  0.00000000E+00  0.00000000E+00
  0.00000000E+00  0.00000000E+00  0.00000000E+00
  0.00000000E+00  0.00000000E+00  0.00000000E+00
  0.00000000E+00  0.00000000E+00  0.00000000E+00
  0.00000000E+00  0.00000000E+00  0.00000000E+00
  0.00000000E+00  0.00000000E+00  0.00000000E+00
  0.00000000E+00  0.00000000E+00  0.00000000E+00
  0.00000000E+00  0.00000000E+00  0.00000000E+00
  0.00000000E+00  0.00000000E+00  0.00000000E+00
  0.00000000E+00  0.00000000E+00  0.00000000E+00
  0.00000000E+00  0.00000000E+00  0.00000000E+00
  0.00000000E+00  0.00000000E+00  0.00000000E+00
  0.00000000E+00  0.00000000E+00  0.00000000E+00
  0.00000000E+00  0.00000000E+00  0.00000000E+00
  0.00000000E+00  0.00000000E+00  0.00000000E+00
  0.00000000E+00  0.00000000E+00  0.00000000E+00
  0.00000000E+00  0.00000000E+00  0.00000000E+00
  0.00000000E+00  0.00000000E+00  0.00000000E+00
  0.00000000E+00  0.00000000E+00  0.00000000E+00
  0.00000000E+00  0.00000000E+00  0.00000000E+00
  0.00000000E+00  0.00000000E+00  0.00000000E+00
  0.00000000E+00  0.00000000E+00  0.00000000E+00
  0.00000000E+00  0.00000000E+00  0.00000000E+00
  0.00000000E+00  0.00000000E+00  0.00000000E+00
  0.00000000E+00  0.00000000E+00  0.00000000E+00
  0.00000000E+00  0.00000000E+00  0.00000000E+00
  0.00000000E+00  0.00000000E+00  0.00000000E+00
  0.00000000E+00  0.00000000E+00  0.00000000E+00
  0.00000000E+00  0.00000000E+00  0.00000000E+00
  0.00000000E+00  0.00000000E+00  0.00000000E+00
  0.00000000E+00  0.00000000E+00  0.00000000E+00
  0.00000000E+00  0.00000000E+00  0.00000000E+00
  0.00000000E+00  0.00000000E+00  0.00000000E+00
  0.00000000E+00  0.00000000E+00  0.00000000E+00
  0.00000000E+00  0.00000000E+00  0.00000000E+00
  0.00000000E+00  0.00000000E+00  0.00000000E+00
  0.00000000E+00  0.00000000E+00  0.00000000E+00
  0.00000000E+00  0.00000000E+00  0.00000000E+00
  0.00000000E+00  0.00000000E+00  0.00000000E+00
  0.00000000E+00  0.00000000E+00  0.00000000E+00
  0.00000000E+00  0.00000000E+00  0.00000000E+00
  0.00000000E+00  0.00000000E+00  0.00000000E+00
  0.00000000E+00  0.00000000E+00  0.00000000E+00
  0.00000000E+00  0.00000000E+00  0.00000000E+00
  0.00000000E+00  0.00000000E+00  0.00000000E+00
  0.00000000E+00  0.00000000E+00  0.00000000E+00
  0.00000000E+00  0.00000000E+00  0.00000000E+00
  0.00000000E+00  0.00000000E+00  0.00000000E+00
  0.00000000E+00  0.00000000E+00  0.00000000E+00
  0.00000000E+00  0.00000000E+00  0.00000000E+00
  0.00000000E+00  0.00000000E+00  0.00000000E+00
  0.00000000E+00  0.00000000E+00  0.00000000E+00
  0.00000000E+00  0.00000000E+00  0.00000000E+00
  0.00000000E+00  0.00000000E+00  0.00000000E+00
  0.00000000E+00  0.00000000E+00  0.00000000E+00
  0.00000000E+00  0.00000000E+00  0.00000000E+00
  0.00000000E+00  0.00000000E+00  0.00000000E+00
  0.00000000E+00  0.00000000E+00  0.00000000E+00
  0.00000000E+00  0.00000000E+00  0.00000000E+00
  0.00000000E+00  0.00000000E+00  0.00000000E+00
  0.00000000E+00  0.00000000E+00  0.00000000E+00
  0.00000000E+00  0.00000000E+00  0.00000000E+00
  0.00000000E+00  0.00000000E+00  0.00000000E+00
  0.00000000E+00  0.00000000E+00  0.00000000E+00
  0.00000000E+00  0.00000000E+00  0.00000000E+00
  0.00000000E+00  0.00000000E+00  0.00000000E+00
  0.00000000E+00  0.00000000E+00  0.00000000E+00
  0.00000000E+00  0.00000000E+00  0.00000000E+00
  0.00000000E+00  0.00000000E+00  0.00000000E+00
  0.00000000E+00  0.00000000E+00  0.00000000E+00
  0.00000000E+00  0.00000000E+00  0.00000000E+00
  0.00000000E+00  0.00000000E+00  0.00000000E+00
  0.00000000E+00  0.00000000E+00  0.00000000E+00
  0.00000000E+00  0.00000000E+00  0.00000000E+00
  0.00000000E+00  0.00000000E+00  0.00000000E+00
  0.00000000E+00  0.00000000E+00  0.00000000E+00
  0.00000000E+00  0.00000000E+00  0.00000000E+00
  0.00000000E+00  0.00000000E+00  0.00000000E+00
  0.00000000E+00  0.00000000E+00  0.00000000E+00
  0.00000000E+00  0.00000000E+00  0.00000000E+00
  0.00000000E+00  0.00000000E+00  0.00000000E+00
  0.00000000E+00  0.00000000E+00  0.00000000E+00
  0.00000000E+00  0.00000000E+00  0.00000000E+00
  0.00000000E+00  0.00000000E+00  0.00000000E+00
  0.00000000E+00  0.00000000E+00  0.00000000E+00
  0.00000000E+00  0.00000000E+00  0.00000000E+00
  0.00000000E+00  0.00000000E+00  0.00000000E+00
  0.00000000E+00  0.00000000E+00  0.00000000E+00
  0.00000000E+00  0.00000000E+00  0.00000000E+00
  0.00000000E+00  0.00000000E+00  0.00000000E+00
  0.00000000E+00  0.00000000E+00  0.00000000E+00
  0.00000000E+00  0.00000000E+00  0.00000000E+00
  0.00000000E+00  0.00000000E+00  0.00000000E+00
  0.00000000E+00  0.00000000E+00  0.00000000E+00
  0.00000000E+00  0.00000000E+00  0.00000000E+00
  0.00000000E+00  0.00000000E+00  0.00000000E+00
  0.00000000E+00  0.00000000E+00  0.00000000E+00
  0.00000000E+00  0.00000000E+00  0.00000000E+00
  0.00000000E+00  0.00000000E+00  0.00000000E+00
  0.00000000E+00  0.00000000E+00  0.00000000E+00
  0.00000000E+00  0.00000000E+00  0.00000000E+00
  0.00000000E+00  0.00000000E+00  0.00000000E+00
  0.00000000E+00  0.00000000E+00  0.00000000E+00
  0.00000000E+00  0.00000000E+00  0.00000000E+00
  0.00000000E+00  0.00000000E+00  0.00000000E+00
  0.00000000E+00  0.00000000E+00  0.00000000E+00
  0.00000000E+00  0.00000000E+00  0.00000000E+00
  0.00000000E+00  0.00000000E+00  0.00000000E+00
  0.00000000E+00  0.00000000E+00  0.00000000E+00
  0.00000000E+00  0.00000000E+00  0.00000000E+00
  0.00000000E+00  0.00000000E+00  0.00000000E+00
  0.00000000E+00  0.00000000E+00  0.00000000E+00
  0.00000000E+00  0.00000000E+00  0.00000000E+00
  0.00000000E+00  0.00000000E+00  0.00000000E+00
  0.00000000E+00  0.00000000E+00  0.00000000E+00
  0.00000000E+00  0.00000000E+00  0.00000000E+00
  0.00000000E+00  0.00000000E+00  0.00000000E+00
  0.00000000E+00  0.00000000E+00  0.00000000E+00
  0.00000000E+00  0.00000000E+00  0.00000000E+00
  0.00000000E+00  0.00000000E+00  0.00000000E+00
  0.00000000E+00  0.00000000E+00  0.00000000E+00
  0.00000000E+00  0.00000000E+00  0.00000000E+00
  0.00000000E+00  0.00000000E+00  0.00000000E+00
  0.00000000E+00  0.00000000E+00  0.00000000E+00
  0.00000000E+00  0.00000000E+00  0.00000000E+00
  0.00000000E+00  0.00000000E+00  0.00000000E+00
  0.00000000E+00  0.00000000E+00  0.00000000E+00
  0.00000000E+00  0.00000000E+00  0.00000000E+00
  0.00000000E+00  0.00000000E+00  0.00000000E+00
  0.00000000E+00  0.00000000E+00  0.00000000E+00
  0.00000000E+00  0.00000000E+00  0.00000000E+00
  0.00000000E+00  0.00000000E+00  0.00000000E+00
  0.00000000E+00  0.00000000E+00  0.00000000E+00
  0.00000000E+00  0.00000000E+00  0.00000000E+00
  0.00000000E+00  0.00000000E+00  0.00000000E+00
  0.00000000E+00  0.00000000E+00  0.00000000E+00
  0.00000000E+00  0.00000000E+00  0.00000000E+00
