Primitive Cell                          
   1.00000000000000     
    29.7907686783488295   -0.0041320876912684    0.0000000000000000
   -14.8989530034117532   25.7477328766315203    0.0000000000000000
     0.0000000000000000    0.0000000000000000   20.0000000000000000
   C    N    H 
    54     9    39
Direct
  0.6433431524780175  0.3644213763312507  0.4930509218552501
  0.6973482798600799  0.3873038189099631  0.4928651228613461
  0.7209074333626688  0.3563764152604563  0.4930796348140873
  0.6896914693168554  0.3022822293758054  0.4931257200840307
  0.6351956752625370  0.2786279774676004  0.4933204392675279
  0.6124146371080457  0.3098466657444945  0.4930667780883695
  0.7773669334360918  0.3796286756548284  0.4940284836780364
  0.6018548732062712  0.2220831354292159  0.4945476872008996
  0.6201671995869873  0.3977047412722072  0.4939899098097200
  0.3527374027109929  0.6317355962993290  0.4924996819200089
  0.2991800768721191  0.6120666986366601  0.4916658537327336
  0.2789282812198124  0.6458558660012628  0.4919164354165204
  0.3129047059977808  0.6995076808266845  0.4918053032575358
  0.3669443400606767  0.7198583685117441  0.4926050407604166
  0.3865200652001022  0.6858720054144172  0.4923883815553438
  0.2227862153521727  0.6256438072168180  0.4944101466696864
  0.4029484568693960  0.7760800522834614  0.4956405209175472
  0.3729016588241620  0.5957575949147440  0.4953684312937057
  0.4380927729083695  0.5757640154193666  0.5134111902882452
  0.4618070950631932  0.5711207285241926  0.5713258324261545
  0.4820176042962458  0.5375396286554590  0.5741663147169405
  0.4813368782707741  0.5099230326443234  0.5155767881358031
  0.5048335490338687  0.4763690098075628  0.5134883558677146
  0.5542103027894143  0.4924520200923013  0.5409447878352083
  0.5768284841571329  0.4614369110149497  0.5368201401006516
  0.1374416425926057  0.5603907058217601  0.5121451300839936
  0.1092282799204654  0.5368887185052458  0.5702640940650809
  0.0554793351907605  0.5167745015219651  0.5734386825631503
  0.0284458409160706  0.5175110082457692  0.5150256480938680
  0.9714348139343159  0.4943186889747864  0.5132878006586097
  0.9378301689205983  0.4450206456564771  0.5410017517289916
  0.8842241203295842  0.4226975815988823  0.5370328252470102
  0.4229639952096633  0.8614330296156822  0.5135556147576494
  0.4273872420051390  0.8896197837666264  0.5715918716913109
  0.4610039204567542  0.9434772356215575  0.5748460468350061
  0.4889175141646476  0.9706479964076777  0.5165395347441830
  0.5226354601503971  0.0277585590262603  0.5147589967969139
  0.5067657968803587  0.0612661956492460  0.5421297974065595
  0.5379125607983823  0.1149710185015635  0.5378816843644927
  0.4575297811414458  0.5154900239634870  0.4580078632556024
  0.4355297119744179  0.5471456984558642  0.4560450164837633
  0.5508687550764506  0.4127455563797398  0.5047149307521792
  0.5010727671173001  0.3958867951252572  0.4785082434722270
  0.4788934634718132  0.4272850324853792  0.4822538213714154
  0.0576742899252807  0.5410875431846662  0.4572238313744137
  0.1112957103021088  0.5628791549197985  0.4548893899978736
  0.8618312844851204  0.4488399499629381  0.5047617643546687
  0.8950794506179065  0.4985953942797821  0.4783870949440754
  0.9486259274843434  0.5205100556543982  0.4820583442663917
  0.4835272244364788  0.9414379815796892  0.4588101053861706
  0.4518216759199376  0.8877160959245174  0.4564531249470605
  0.5865286848933735  0.1375461606808770  0.5057815406653887
  0.6032087939226329  0.1043851069952666  0.4797939514949334
  0.5716835255158585  0.0507490831863819  0.4836424297398167
  0.5033097953938253  0.5328614986806102  0.6339186258037444
  0.4195799019122148  0.6107560682901365  0.5137548784038231
  0.0296785229699239  0.4955028235167731  0.6333354330268151
  0.1909092712043972  0.5787945201493727  0.5122733431416862
  0.4654244086305255  0.9692428839754470  0.6347291107706070
  0.3879362401943780  0.8078738910585059  0.5134858878045705
  0.5709985080786311  0.3792872635893190  0.4997181023770167
  0.8082816208919681  0.4288730430643355  0.4997031563557215
  0.6200943413060855  0.1911839186272815  0.5005318017121496
  0.7070082396559059  0.2774721233824380  0.4933295446585220
  0.5702895472607423  0.2924875151171662  0.4932002976720469
  0.7221770274007682  0.4294983687768834  0.4928524926599849
  0.6477520668608534  0.4398596213143122  0.4892723232792804
  0.5597814708681881  0.2075851929223873  0.4898008164916732
  0.7918151485288547  0.3519952841466392  0.4893603070253860
  0.2980977675465795  0.7264654655542486  0.4920526240882737
  0.4282871249051823  0.7007384803045156  0.4930791182951424
  0.2722206591624570  0.5702389688547029  0.4917669547274812
  0.3452386416670237  0.5547070217546732  0.4829138645952966
  0.4440314662369005  0.7894261320786171  0.4838853305937150
  0.2095771806372255  0.6534604813211118  0.4823393042939870
  0.5754687364582480  0.5303352990737480  0.5651206094571890
  0.6146752312661050  0.4746455991572702  0.5596840758377368
  0.4633654407877188  0.5934712639565234  0.6154571045581747
  0.4908736912488720  0.5426483175217029  0.6756899161138534
  0.5055318184500450  0.5001116504390453  0.6394265077754113
  0.9541575459143772  0.4235482995498998  0.5651944953019097
  0.8593426944241784  0.3849232399280353  0.5601184556385306
  0.1301240838603590  0.5353854726353049  0.6142775973171268
  0.0520702684366512  0.5080642663679527  0.6749740568449667
  0.9947869737893313  0.4933298368026726  0.6391141187638993
  0.4689224290875558  0.0447678801864342  0.5662378354041877
  0.5248331280829532  0.1397779041922078  0.5606009297616836
  0.4048077819388070  0.8686304900492203  0.6154935378986579
  0.4554729662876937  0.9467455825986804  0.6762993295413509
  0.4981321810056727  0.0042226233487739  0.6406155459229836
  0.4575403068593005  0.4949624441661200  0.4127697252294311
  0.4186344477610078  0.5518183587599168  0.4100722048236420
  0.4804268123643780  0.3576866218491546  0.4550261566696960
  0.4401927147431124  0.4133715220000980  0.4617125971498837
  0.0370703674242918  0.5410797068455153  0.4120869509016529
  0.1327432603513188  0.5795732853457380  0.4087494600746027
  0.8778035005978566  0.5194101283406312  0.4548004180716347
  0.9736723644234573  0.5591991790888429  0.4614230208554133
  0.5042384467655339  0.9621809401293646  0.4137635199217300
  0.4472821240763238  0.8662830961448336  0.4103511169593261
  0.6413586367284978  0.1218159813913928  0.4563484902421351
  0.5854418145557005  0.0257840902507880  0.4632236917199677
 
  0.00000000E+00  0.00000000E+00  0.00000000E+00
  0.00000000E+00  0.00000000E+00  0.00000000E+00
  0.00000000E+00  0.00000000E+00  0.00000000E+00
  0.00000000E+00  0.00000000E+00  0.00000000E+00
  0.00000000E+00  0.00000000E+00  0.00000000E+00
  0.00000000E+00  0.00000000E+00  0.00000000E+00
  0.00000000E+00  0.00000000E+00  0.00000000E+00
  0.00000000E+00  0.00000000E+00  0.00000000E+00
  0.00000000E+00  0.00000000E+00  0.00000000E+00
  0.00000000E+00  0.00000000E+00  0.00000000E+00
  0.00000000E+00  0.00000000E+00  0.00000000E+00
  0.00000000E+00  0.00000000E+00  0.00000000E+00
  0.00000000E+00  0.00000000E+00  0.00000000E+00
  0.00000000E+00  0.00000000E+00  0.00000000E+00
  0.00000000E+00  0.00000000E+00  0.00000000E+00
  0.00000000E+00  0.00000000E+00  0.00000000E+00
  0.00000000E+00  0.00000000E+00  0.00000000E+00
  0.00000000E+00  0.00000000E+00  0.00000000E+00
  0.00000000E+00  0.00000000E+00  0.00000000E+00
  0.00000000E+00  0.00000000E+00  0.00000000E+00
  0.00000000E+00  0.00000000E+00  0.00000000E+00
  0.00000000E+00  0.00000000E+00  0.00000000E+00
  0.00000000E+00  0.00000000E+00  0.00000000E+00
  0.00000000E+00  0.00000000E+00  0.00000000E+00
  0.00000000E+00  0.00000000E+00  0.00000000E+00
  0.00000000E+00  0.00000000E+00  0.00000000E+00
  0.00000000E+00  0.00000000E+00  0.00000000E+00
  0.00000000E+00  0.00000000E+00  0.00000000E+00
  0.00000000E+00  0.00000000E+00  0.00000000E+00
  0.00000000E+00  0.00000000E+00  0.00000000E+00
  0.00000000E+00  0.00000000E+00  0.00000000E+00
  0.00000000E+00  0.00000000E+00  0.00000000E+00
  0.00000000E+00  0.00000000E+00  0.00000000E+00
  0.00000000E+00  0.00000000E+00  0.00000000E+00
  0.00000000E+00  0.00000000E+00  0.00000000E+00
  0.00000000E+00  0.00000000E+00  0.00000000E+00
  0.00000000E+00  0.00000000E+00  0.00000000E+00
  0.00000000E+00  0.00000000E+00  0.00000000E+00
  0.00000000E+00  0.00000000E+00  0.00000000E+00
  0.00000000E+00  0.00000000E+00  0.00000000E+00
  0.00000000E+00  0.00000000E+00  0.00000000E+00
  0.00000000E+00  0.00000000E+00  0.00000000E+00
  0.00000000E+00  0.00000000E+00  0.00000000E+00
  0.00000000E+00  0.00000000E+00  0.00000000E+00
  0.00000000E+00  0.00000000E+00  0.00000000E+00
  0.00000000E+00  0.00000000E+00  0.00000000E+00
  0.00000000E+00  0.00000000E+00  0.00000000E+00
  0.00000000E+00  0.00000000E+00  0.00000000E+00
  0.00000000E+00  0.00000000E+00  0.00000000E+00
  0.00000000E+00  0.00000000E+00  0.00000000E+00
  0.00000000E+00  0.00000000E+00  0.00000000E+00
  0.00000000E+00  0.00000000E+00  0.00000000E+00
  0.00000000E+00  0.00000000E+00  0.00000000E+00
  0.00000000E+00  0.00000000E+00  0.00000000E+00
  0.00000000E+00  0.00000000E+00  0.00000000E+00
  0.00000000E+00  0.00000000E+00  0.00000000E+00
  0.00000000E+00  0.00000000E+00  0.00000000E+00
  0.00000000E+00  0.00000000E+00  0.00000000E+00
  0.00000000E+00  0.00000000E+00  0.00000000E+00
  0.00000000E+00  0.00000000E+00  0.00000000E+00
  0.00000000E+00  0.00000000E+00  0.00000000E+00
  0.00000000E+00  0.00000000E+00  0.00000000E+00
  0.00000000E+00  0.00000000E+00  0.00000000E+00
  0.00000000E+00  0.00000000E+00  0.00000000E+00
  0.00000000E+00  0.00000000E+00  0.00000000E+00
  0.00000000E+00  0.00000000E+00  0.00000000E+00
  0.00000000E+00  0.00000000E+00  0.00000000E+00
  0.00000000E+00  0.00000000E+00  0.00000000E+00
  0.00000000E+00  0.00000000E+00  0.00000000E+00
  0.00000000E+00  0.00000000E+00  0.00000000E+00
  0.00000000E+00  0.00000000E+00  0.00000000E+00
  0.00000000E+00  0.00000000E+00  0.00000000E+00
  0.00000000E+00  0.00000000E+00  0.00000000E+00
  0.00000000E+00  0.00000000E+00  0.00000000E+00
  0.00000000E+00  0.00000000E+00  0.00000000E+00
  0.00000000E+00  0.00000000E+00  0.00000000E+00
  0.00000000E+00  0.00000000E+00  0.00000000E+00
  0.00000000E+00  0.00000000E+00  0.00000000E+00
  0.00000000E+00  0.00000000E+00  0.00000000E+00
  0.00000000E+00  0.00000000E+00  0.00000000E+00
  0.00000000E+00  0.00000000E+00  0.00000000E+00
  0.00000000E+00  0.00000000E+00  0.00000000E+00
  0.00000000E+00  0.00000000E+00  0.00000000E+00
  0.00000000E+00  0.00000000E+00  0.00000000E+00
  0.00000000E+00  0.00000000E+00  0.00000000E+00
  0.00000000E+00  0.00000000E+00  0.00000000E+00
  0.00000000E+00  0.00000000E+00  0.00000000E+00
  0.00000000E+00  0.00000000E+00  0.00000000E+00
  0.00000000E+00  0.00000000E+00  0.00000000E+00
  0.00000000E+00  0.00000000E+00  0.00000000E+00
  0.00000000E+00  0.00000000E+00  0.00000000E+00
  0.00000000E+00  0.00000000E+00  0.00000000E+00
  0.00000000E+00  0.00000000E+00  0.00000000E+00
  0.00000000E+00  0.00000000E+00  0.00000000E+00
  0.00000000E+00  0.00000000E+00  0.00000000E+00
  0.00000000E+00  0.00000000E+00  0.00000000E+00
  0.00000000E+00  0.00000000E+00  0.00000000E+00
  0.00000000E+00  0.00000000E+00  0.00000000E+00
  0.00000000E+00  0.00000000E+00  0.00000000E+00
  0.00000000E+00  0.00000000E+00  0.00000000E+00
  0.00000000E+00  0.00000000E+00  0.00000000E+00
  0.00000000E+00  0.00000000E+00  0.00000000E+00
