Primitive Cell                          
   1.00000000000000     
    29.0086836901983354    0.0021892982608910    0.0000000000000000
   -14.5024445776375952   25.1142097298856797    0.0000000000000000
     0.0000000000000000    0.0000000000000000   20.0000000000000000
   C    N    H 
    54    36    18
Direct
  0.4737278036787274  0.0341538157579819  0.5497436565232832
  0.5290949624711700  0.0597718217931202  0.5409240480169188
  0.5601932679826831  0.1179704959217034  0.5271278574793072
  0.6359698502688360  0.1903291485324274  0.4933996639883418
  0.5586787032765841  0.1916096511841801  0.4931485432576963
  0.5603156857328102  0.3773913672413656  0.4927889436403703
  0.5634663072111650  0.4526573535507410  0.5283180263646443
  0.6387136952548289  0.4546708115893807  0.4938931638461881
  0.8221656571457032  0.4516609999641545  0.4943305244962204
  0.8950003658889116  0.4485125036947579  0.5278053324367278
  0.8220459305427781  0.3736971014968233  0.4931002133290363
  0.3740309736841994  0.8218707581665754  0.4927264657539894
  0.4491082990470829  0.8954403793772556  0.5270071058911157
  0.4524204656548108  0.8229312926388062  0.4936375503606953
  0.4537224569240621  0.6387904162038538  0.4959061808435266
  0.4519714229829148  0.5634512040666166  0.5294417719387496
  0.3763693010235016  0.5602301225929196  0.4952976759602876
  0.1905062188964521  0.5580234778056692  0.4932342914428318
  0.1174570670253630  0.5599789539308375  0.5274218445684440
  0.1901578859230142  0.6357644279408419  0.4930747906015540
  0.5363121683804692  0.3188041062635278  0.4861677917290805
  0.5072395258661189  0.2829792419716668  0.5370470081826184
  0.5070532389258915  0.2347340959777995  0.5373820161989116
  0.5355459988836131  0.2269909053706343  0.4866042549794187
  0.7876976469255652  0.4758598604922994  0.4886617804119950
  0.7801811921401409  0.5035091905373150  0.5407355216370320
  0.7325174370593643  0.5044105400491219  0.5405721222472337
  0.6972150802957700  0.4776256729663046  0.4883075714701235
  0.6946085825673407  0.2245804906453728  0.4867732672159022
  0.7306300410778803  0.2312265598289471  0.5373395029136816
  0.7791599759376240  0.2790009719799542  0.5371669113888018
  0.7867210109967004  0.3152287841517634  0.4864495480256679
  0.4770595603547818  0.6972982400102623  0.4892711961654470
  0.5051234991013587  0.7334580721594648  0.5402843141475486
  0.5050626560671674  0.7815732096634918  0.5395230682582479
  0.4765943721241328  0.7884386914863057  0.4879539654965583
  0.2258081398037461  0.5348008661403725  0.4870365954853924
  0.2329132141189945  0.5057663170850546  0.5376654223172324
  0.2813484730103966  0.5063091088748948  0.5381813587269093
  0.3177676619094427  0.5359128827829807  0.4880865138556487
  0.3155216227767781  0.7864242960833465  0.4865959015703680
  0.2799754510511221  0.7782731372328016  0.5384232924510925
  0.2321485848345120  0.7298529390063138  0.5385415356585739
  0.2246769629350283  0.6944162301570529  0.4868308133268044
  0.4761445689546022  0.9536174192425833  0.5408325942084105
  0.4462821801567074  0.9791206910886814  0.5497138871903786
  0.4830684036372901  0.5363954006255653  0.5434430035350459
  0.5384113629693204  0.5662693728906163  0.5524660139265904
  0.5660172049913967  0.5388585434277005  0.5521953897222289
  0.5363091480371338  0.4835269741861126  0.5429098546750453
  0.0592789664790487  0.5322424975103246  0.5414270079130930
  0.0336807069837946  0.5615756688944842  0.5539592643309490
  0.9786828852036322  0.5340004389942834  0.5540332271904873
  0.9531747168264388  0.4790454750314765  0.5416120298697606
  0.5562103155068101  0.0330904086194508  0.5393099239776973
  0.6133377024633404  0.1413713736598439  0.5199688893893395
  0.5314205845534659  0.1425995533074342  0.5194204462941485
  0.6099701647036113  0.2157182733599470  0.4749435340774113
  0.5338417423543689  0.3996007058341178  0.5200405609619381
  0.6169274975631680  0.4815005866789051  0.5212372928421516
  0.6116712067846350  0.4037098168696289  0.4742503005593832
  0.8709518803907628  0.4779394636937724  0.5212495497830290
  0.8709683038255776  0.3954016781325080  0.5196438681749598
  0.7974789056305696  0.4006270039039279  0.4750045727366796
  0.3957406385564894  0.8708631804731510  0.5189778686066830
  0.4787164018576604  0.8718248367719710  0.5202982202046016
  0.4011396093312811  0.7976520595583025  0.4746842573280929
  0.4808208881312837  0.6169105036830587  0.5222174706308067
  0.3988952612054746  0.5336928177798583  0.5215308967325001
  0.4024647329110422  0.6117810520139457  0.4775534098482339
  0.1416632709817733  0.5310114111053608  0.5200014897107508
  0.1413499899500010  0.6133733709376585  0.5199600094111929
  0.2149455177342077  0.6093629023144587  0.4744391752939947
  0.5299313482816999  0.9804016391797319  0.5392291231149997
  0.4825179388951497  0.4563364417305706  0.5415685608557013
  0.4560875346469970  0.4825969853869410  0.5418424608151753
  0.9799048763362421  0.4521495706436269  0.5361694224644040
  0.0326132455173394  0.4786033702057466  0.5360671674129733
  0.5512188835935774  0.2577011309873214  0.4307057628926501
  0.5518113744397439  0.3032244103607837  0.4306525393443508
  0.7129570752028300  0.4631591751767417  0.4320491596622418
  0.7577153774806789  0.4622386408901704  0.4322404576148955
  0.7556819895710376  0.3003292054468147  0.4308870271885539
  0.7101381143594594  0.2554909006785167  0.4310658359982753
  0.4617328752260974  0.7574674010170241  0.4323661335715272
  0.4620510283556243  0.7124143628235231  0.4328752004767793
  0.3026681718655979  0.5516549879187593  0.4322976342038274
  0.2572023195771891  0.5510679099050577  0.4317613175127164
  0.2549221363719880  0.7104885640190872  0.4306016410113145
  0.2998872615220236  0.7560185933649208  0.4304881561007718
  0.4538809190213300  0.0574830055104840  0.5540285759557619
  0.4886465196057941  0.2057879376183465  0.5776114043084135
  0.4888423664004335  0.2941014120162038  0.5766703942782314
  0.7213809039990764  0.5218223109746702  0.5813881709460063
  0.8087080238345905  0.5202753538321474  0.5816646299748953
  0.8085359669273018  0.2894301609332999  0.5768182537610684
  0.7196041642909563  0.2018241503846880  0.5770932311798092
  0.5231349622235442  0.8110429066578604  0.5792558401746319
  0.5231026339815799  0.7228282293758568  0.5809397214504273
  0.2920338047278719  0.4876540429637046  0.5779412171216549
  0.2032630884174296  0.4866658982848051  0.5769988132855346
  0.2034566199512469  0.7183632785299139  0.5792516381291364
  0.2910131895331247  0.8069967623590628  0.5790219383116195
  0.4031173974658699  0.9557199736920339  0.5540282686607938
  0.6091799849105541  0.5587259663325597  0.5565806627955681
  0.5581261451245467  0.6094160260870325  0.5570423161819917
  0.9552788873013967  0.5535344154942834  0.5610174534758841
  0.0569766946055807  0.6045268842614888  0.5608754039216635
 
  0.00000000E+00  0.00000000E+00  0.00000000E+00
  0.00000000E+00  0.00000000E+00  0.00000000E+00
  0.00000000E+00  0.00000000E+00  0.00000000E+00
  0.00000000E+00  0.00000000E+00  0.00000000E+00
  0.00000000E+00  0.00000000E+00  0.00000000E+00
  0.00000000E+00  0.00000000E+00  0.00000000E+00
  0.00000000E+00  0.00000000E+00  0.00000000E+00
  0.00000000E+00  0.00000000E+00  0.00000000E+00
  0.00000000E+00  0.00000000E+00  0.00000000E+00
  0.00000000E+00  0.00000000E+00  0.00000000E+00
  0.00000000E+00  0.00000000E+00  0.00000000E+00
  0.00000000E+00  0.00000000E+00  0.00000000E+00
  0.00000000E+00  0.00000000E+00  0.00000000E+00
  0.00000000E+00  0.00000000E+00  0.00000000E+00
  0.00000000E+00  0.00000000E+00  0.00000000E+00
  0.00000000E+00  0.00000000E+00  0.00000000E+00
  0.00000000E+00  0.00000000E+00  0.00000000E+00
  0.00000000E+00  0.00000000E+00  0.00000000E+00
  0.00000000E+00  0.00000000E+00  0.00000000E+00
  0.00000000E+00  0.00000000E+00  0.00000000E+00
  0.00000000E+00  0.00000000E+00  0.00000000E+00
  0.00000000E+00  0.00000000E+00  0.00000000E+00
  0.00000000E+00  0.00000000E+00  0.00000000E+00
  0.00000000E+00  0.00000000E+00  0.00000000E+00
  0.00000000E+00  0.00000000E+00  0.00000000E+00
  0.00000000E+00  0.00000000E+00  0.00000000E+00
  0.00000000E+00  0.00000000E+00  0.00000000E+00
  0.00000000E+00  0.00000000E+00  0.00000000E+00
  0.00000000E+00  0.00000000E+00  0.00000000E+00
  0.00000000E+00  0.00000000E+00  0.00000000E+00
  0.00000000E+00  0.00000000E+00  0.00000000E+00
  0.00000000E+00  0.00000000E+00  0.00000000E+00
  0.00000000E+00  0.00000000E+00  0.00000000E+00
  0.00000000E+00  0.00000000E+00  0.00000000E+00
  0.00000000E+00  0.00000000E+00  0.00000000E+00
  0.00000000E+00  0.00000000E+00  0.00000000E+00
  0.00000000E+00  0.00000000E+00  0.00000000E+00
  0.00000000E+00  0.00000000E+00  0.00000000E+00
  0.00000000E+00  0.00000000E+00  0.00000000E+00
  0.00000000E+00  0.00000000E+00  0.00000000E+00
  0.00000000E+00  0.00000000E+00  0.00000000E+00
  0.00000000E+00  0.00000000E+00  0.00000000E+00
  0.00000000E+00  0.00000000E+00  0.00000000E+00
  0.00000000E+00  0.00000000E+00  0.00000000E+00
  0.00000000E+00  0.00000000E+00  0.00000000E+00
  0.00000000E+00  0.00000000E+00  0.00000000E+00
  0.00000000E+00  0.00000000E+00  0.00000000E+00
  0.00000000E+00  0.00000000E+00  0.00000000E+00
  0.00000000E+00  0.00000000E+00  0.00000000E+00
  0.00000000E+00  0.00000000E+00  0.00000000E+00
  0.00000000E+00  0.00000000E+00  0.00000000E+00
  0.00000000E+00  0.00000000E+00  0.00000000E+00
  0.00000000E+00  0.00000000E+00  0.00000000E+00
  0.00000000E+00  0.00000000E+00  0.00000000E+00
  0.00000000E+00  0.00000000E+00  0.00000000E+00
  0.00000000E+00  0.00000000E+00  0.00000000E+00
  0.00000000E+00  0.00000000E+00  0.00000000E+00
  0.00000000E+00  0.00000000E+00  0.00000000E+00
  0.00000000E+00  0.00000000E+00  0.00000000E+00
  0.00000000E+00  0.00000000E+00  0.00000000E+00
  0.00000000E+00  0.00000000E+00  0.00000000E+00
  0.00000000E+00  0.00000000E+00  0.00000000E+00
  0.00000000E+00  0.00000000E+00  0.00000000E+00
  0.00000000E+00  0.00000000E+00  0.00000000E+00
  0.00000000E+00  0.00000000E+00  0.00000000E+00
  0.00000000E+00  0.00000000E+00  0.00000000E+00
  0.00000000E+00  0.00000000E+00  0.00000000E+00
  0.00000000E+00  0.00000000E+00  0.00000000E+00
  0.00000000E+00  0.00000000E+00  0.00000000E+00
  0.00000000E+00  0.00000000E+00  0.00000000E+00
  0.00000000E+00  0.00000000E+00  0.00000000E+00
  0.00000000E+00  0.00000000E+00  0.00000000E+00
  0.00000000E+00  0.00000000E+00  0.00000000E+00
  0.00000000E+00  0.00000000E+00  0.00000000E+00
  0.00000000E+00  0.00000000E+00  0.00000000E+00
  0.00000000E+00  0.00000000E+00  0.00000000E+00
  0.00000000E+00  0.00000000E+00  0.00000000E+00
  0.00000000E+00  0.00000000E+00  0.00000000E+00
  0.00000000E+00  0.00000000E+00  0.00000000E+00
  0.00000000E+00  0.00000000E+00  0.00000000E+00
  0.00000000E+00  0.00000000E+00  0.00000000E+00
  0.00000000E+00  0.00000000E+00  0.00000000E+00
  0.00000000E+00  0.00000000E+00  0.00000000E+00
  0.00000000E+00  0.00000000E+00  0.00000000E+00
  0.00000000E+00  0.00000000E+00  0.00000000E+00
  0.00000000E+00  0.00000000E+00  0.00000000E+00
  0.00000000E+00  0.00000000E+00  0.00000000E+00
  0.00000000E+00  0.00000000E+00  0.00000000E+00
  0.00000000E+00  0.00000000E+00  0.00000000E+00
  0.00000000E+00  0.00000000E+00  0.00000000E+00
  0.00000000E+00  0.00000000E+00  0.00000000E+00
  0.00000000E+00  0.00000000E+00  0.00000000E+00
  0.00000000E+00  0.00000000E+00  0.00000000E+00
  0.00000000E+00  0.00000000E+00  0.00000000E+00
  0.00000000E+00  0.00000000E+00  0.00000000E+00
  0.00000000E+00  0.00000000E+00  0.00000000E+00
  0.00000000E+00  0.00000000E+00  0.00000000E+00
  0.00000000E+00  0.00000000E+00  0.00000000E+00
  0.00000000E+00  0.00000000E+00  0.00000000E+00
  0.00000000E+00  0.00000000E+00  0.00000000E+00
  0.00000000E+00  0.00000000E+00  0.00000000E+00
  0.00000000E+00  0.00000000E+00  0.00000000E+00
  0.00000000E+00  0.00000000E+00  0.00000000E+00
  0.00000000E+00  0.00000000E+00  0.00000000E+00
  0.00000000E+00  0.00000000E+00  0.00000000E+00
  0.00000000E+00  0.00000000E+00  0.00000000E+00
  0.00000000E+00  0.00000000E+00  0.00000000E+00
  0.00000000E+00  0.00000000E+00  0.00000000E+00
