Primitive Cell                          
   1.00000000000000     
    25.4397164096950128   -0.0252798497042993    0.0000000000000000
    -0.0418247466747330   25.4387125190388268    0.0000000000000000
     0.0000000000000000    0.0000000000000000   20.0000000000000000
   N    H    C 
    12    42    62
Direct
  0.9821120974890860  0.4630078823906700  0.4072026676145626
  0.9836639048293847  0.5964718408166974  0.4714813186688360
  0.5149461540411622  0.9825021751437575  0.4066516808844014
  0.3809634263077442  0.9841772377179723  0.4692796553835095
  0.9862674134090952  0.3814010391026912  0.4581694943588701
  0.5961074218995250  0.9884193507354766  0.4586298125465333
  0.0439147937378195  0.0508814383428913  0.4968916528373484
  0.9288292879853870  0.0432682342117872  0.4972245878458210
  0.9318741925960126  0.9279309135105365  0.4982416493940391
  0.0470397792797783  0.9356075526417769  0.4982264064634307
  0.9844284233745100  0.4573292261771655  0.5267805459299524
  0.5196772396488072  0.9860367001299437  0.5262290794727278
  0.0034578248357704  0.2927309646598744  0.4024741234959706
  0.0079108401960752  0.1945353425498553  0.3984056298366525
  0.7835728043452193  0.0106981418060741  0.4011411604440482
  0.6853465306506550  0.0063905095067440  0.4041755930075723
  0.9577359521017499  0.7825970065473484  0.4093787926633681
  0.9626189553857785  0.6847375102969409  0.4149573080846807
  0.2924553889074062  0.9653082647456586  0.4108942138731351
  0.1945438431652704  0.9603901975271540  0.4053533092117547
  0.9787531846698911  0.5381156313292976  0.3671409634162615
  0.4401326131479379  0.9781988726896600  0.3657449568696336
  0.9431370814800886  0.2842837628962016  0.6032299539010495
  0.9480635180809287  0.1866237293795550  0.5995450691678599
  0.0846537574863930  0.1740622704630894  0.4946170513571175
  0.1626524518267374  0.1030820669924282  0.4937295066200278
  0.0168609675253393  0.0211863252378421  0.4979174067064775
  0.9590260646896240  0.9575134702772985  0.4967527123434223
  0.8748624751366307  0.1641365617964112  0.4967920293917629
  0.8035433991771086  0.0861052537878493  0.4992963671352086
  0.7897856810923187  0.9512678971098936  0.6025548849950937
  0.6920820681828204  0.9465354675230344  0.6052689105618327
  0.8129486494726521  0.8763195090254001  0.5043838915178895
  0.8906898562453875  0.8051120846569120  0.5067501631445950
  0.1722901099606418  0.8926771693831554  0.4991217968957571
  0.1012013388048913  0.8148650895415841  0.4972112772262136
  0.0378197992859555  0.7934309717967523  0.5985341574374559
  0.0445448530273893  0.6960782371863701  0.6027579790548430
  0.1843317051478195  0.0374670614282806  0.5965431589525423
  0.2816935877280855  0.0442694166677100  0.6007525462847241
  0.0337275651149440  0.6114156011225873  0.5527174460581890
  0.6078238974756047  0.9556746546436656  0.5531487651859734
  0.9529403136152155  0.3690300982519190  0.5522805348498991
  0.3661300174201898  0.0344881505555108  0.5502000504984608
  0.0223895063307609  0.5404132155611592  0.6233698314258262
  0.9477537123132294  0.5985643848810938  0.6585247068030640
  0.9078216996422626  0.5737211530665007  0.5891046517820229
  0.9163584933024254  0.4808695312854070  0.6328619714564567
  0.9561909756132252  0.5046523103954286  0.7031192732350888
  0.4358001156874280  0.0233257986964119  0.6217983662894895
  0.3776541467607331  0.9480597364926737  0.6561424617949072
  0.4032516944190547  0.9085158721852835  0.5869184342554945
  0.4957269559437165  0.9179025849541915  0.6319695816328448
  0.4711443108258067  0.9573587328929563  0.7020085493562220
  0.2138515184618868  0.9780727506467102  0.4485984059997676
  0.2683284790638254  0.9808899261354753  0.4513241230869127
  0.9761190637096391  0.7634435083346247  0.4521959528070667
  0.9789190159406829  0.7089778629842058  0.4549005595039119
  0.7087442888672442  0.9946485589273237  0.4473311681896632
  0.7632641947425398  0.9969162460768928  0.4459091210087891
  0.9941631085438090  0.2144460505259786  0.4434294941958541
  0.9917327255487294  0.2689555462876143  0.4453534397411545
  0.9815401288937196  0.5149837375031865  0.4131539769832742
  0.4629195462927242  0.9816205762969048  0.4119732430768934
  0.9840390467256341  0.4358970926285224  0.4652062942692794
  0.5415825177895925  0.9854280291117661  0.4649421254095003
  0.9849839622215200  0.5420738353409291  0.4746694592071705
  0.4353649505519712  0.9855406581303470  0.4730822675927939
  0.0808898697584013  0.1315942315567753  0.4952342022578549
  0.1207494059974508  0.0953117124418341  0.4951813218572951
  0.0975320390607379  0.0438410026166380  0.4971019599932163
  0.0318737557775179  0.1036045232397527  0.4959724621761410
  0.9812355060056817  0.1255347750097684  0.4969607601194213
  0.9335936138763188  0.0969628735317869  0.4974083004451870
  0.8757966930170511  0.0336629542713780  0.4978591025483965
  0.8460550665799573  0.0826316330094343  0.4983635231072654
  0.8821256893125664  0.1221193294652636  0.4974734215834218
  0.8517589534578249  0.9836001175182787  0.4996561603981604
  0.8782801514738310  0.9351949128927117  0.5003247748325279
  0.9438066306259643  0.8752166903678997  0.5003224743024148
  0.8946693598946069  0.8474872058957885  0.5038017621559732
  0.8548998513683799  0.8838699014439513  0.5030070470724581
  0.9945206454834619  0.8532213471451584  0.5005632328470497
  0.0422196631855272  0.8819016165738844  0.4991022875599640
  0.1001205296986285  0.9453010188970197  0.4978937188402028
  0.1298029990421057  0.8963269448156836  0.4985354254080931
  0.0937367907552087  0.8568326252875238  0.4981748815327549
  0.1242005174862015  0.9954463123045088  0.4981616208561164
  0.1826639733403965  0.9983580592391732  0.5007656544800270
  0.2935540278325846  0.0048692375989319  0.5061271596499850
  0.2625752635623613  0.0256440300434519  0.5579105341182924
  0.2079855272326938  0.0220107401549896  0.5555568015613019
  0.9974289257948499  0.7948066386975015  0.5036489707832317
  0.0038379988055723  0.6839098819394351  0.5090413190469647
  0.0253053314484646  0.7150619337370685  0.5603360445531251
  0.0217278024754464  0.7696429797494702  0.5580024289858798
  0.7932113967452565  0.9811683632692478  0.5016315326334677
  0.7669157408169909  0.9630782154605697  0.5589467449450112
  0.7122276001816701  0.9605698372447549  0.5604273135043911
  0.6824201478099639  0.9763281890861322  0.5047759019434537
  0.9784173711068931  0.1840593665994845  0.4988289356271594
  0.9600853784579755  0.2098710555945686  0.5563170068317973
  0.9733070711048626  0.2947834123780311  0.5030386707923853
  0.9573980971504668  0.2645189683084652  0.5582894805472520
  0.0079402145193583  0.6267096688730334  0.5129175184116121
  0.6252148461230149  0.9727769979207892  0.5074242280104357
  0.9700733572080793  0.3519700071491840  0.5064275580379558
  0.3507562101052528  0.0087108922415737  0.5103527369201259
  0.9851176542823694  0.5097481575852640  0.5328594325209508
  0.9837418470508652  0.5311463836994363  0.6025327283541770
  0.9438542540707502  0.5103399412021261  0.6514752591911872
  0.9388938085823639  0.5657948991691129  0.6252280120965636
  0.4672316467950353  0.9862154398182525  0.5316676534045612
  0.4453362003419201  0.9847488951621415  0.6010950661875327
  0.4659468151546236  0.9450350781367973  0.6502640190981026
  0.4107273718694557  0.9395594200109514  0.6232786845362810
 
  0.00000000E+00  0.00000000E+00  0.00000000E+00
  0.00000000E+00  0.00000000E+00  0.00000000E+00
  0.00000000E+00  0.00000000E+00  0.00000000E+00
  0.00000000E+00  0.00000000E+00  0.00000000E+00
  0.00000000E+00  0.00000000E+00  0.00000000E+00
  0.00000000E+00  0.00000000E+00  0.00000000E+00
  0.00000000E+00  0.00000000E+00  0.00000000E+00
  0.00000000E+00  0.00000000E+00  0.00000000E+00
  0.00000000E+00  0.00000000E+00  0.00000000E+00
  0.00000000E+00  0.00000000E+00  0.00000000E+00
  0.00000000E+00  0.00000000E+00  0.00000000E+00
  0.00000000E+00  0.00000000E+00  0.00000000E+00
  0.00000000E+00  0.00000000E+00  0.00000000E+00
  0.00000000E+00  0.00000000E+00  0.00000000E+00
  0.00000000E+00  0.00000000E+00  0.00000000E+00
  0.00000000E+00  0.00000000E+00  0.00000000E+00
  0.00000000E+00  0.00000000E+00  0.00000000E+00
  0.00000000E+00  0.00000000E+00  0.00000000E+00
  0.00000000E+00  0.00000000E+00  0.00000000E+00
  0.00000000E+00  0.00000000E+00  0.00000000E+00
  0.00000000E+00  0.00000000E+00  0.00000000E+00
  0.00000000E+00  0.00000000E+00  0.00000000E+00
  0.00000000E+00  0.00000000E+00  0.00000000E+00
  0.00000000E+00  0.00000000E+00  0.00000000E+00
  0.00000000E+00  0.00000000E+00  0.00000000E+00
  0.00000000E+00  0.00000000E+00  0.00000000E+00
  0.00000000E+00  0.00000000E+00  0.00000000E+00
  0.00000000E+00  0.00000000E+00  0.00000000E+00
  0.00000000E+00  0.00000000E+00  0.00000000E+00
  0.00000000E+00  0.00000000E+00  0.00000000E+00
  0.00000000E+00  0.00000000E+00  0.00000000E+00
  0.00000000E+00  0.00000000E+00  0.00000000E+00
  0.00000000E+00  0.00000000E+00  0.00000000E+00
  0.00000000E+00  0.00000000E+00  0.00000000E+00
  0.00000000E+00  0.00000000E+00  0.00000000E+00
  0.00000000E+00  0.00000000E+00  0.00000000E+00
  0.00000000E+00  0.00000000E+00  0.00000000E+00
  0.00000000E+00  0.00000000E+00  0.00000000E+00
  0.00000000E+00  0.00000000E+00  0.00000000E+00
  0.00000000E+00  0.00000000E+00  0.00000000E+00
  0.00000000E+00  0.00000000E+00  0.00000000E+00
  0.00000000E+00  0.00000000E+00  0.00000000E+00
  0.00000000E+00  0.00000000E+00  0.00000000E+00
  0.00000000E+00  0.00000000E+00  0.00000000E+00
  0.00000000E+00  0.00000000E+00  0.00000000E+00
  0.00000000E+00  0.00000000E+00  0.00000000E+00
  0.00000000E+00  0.00000000E+00  0.00000000E+00
  0.00000000E+00  0.00000000E+00  0.00000000E+00
  0.00000000E+00  0.00000000E+00  0.00000000E+00
  0.00000000E+00  0.00000000E+00  0.00000000E+00
  0.00000000E+00  0.00000000E+00  0.00000000E+00
  0.00000000E+00  0.00000000E+00  0.00000000E+00
  0.00000000E+00  0.00000000E+00  0.00000000E+00
  0.00000000E+00  0.00000000E+00  0.00000000E+00
  0.00000000E+00  0.00000000E+00  0.00000000E+00
  0.00000000E+00  0.00000000E+00  0.00000000E+00
  0.00000000E+00  0.00000000E+00  0.00000000E+00
  0.00000000E+00  0.00000000E+00  0.00000000E+00
  0.00000000E+00  0.00000000E+00  0.00000000E+00
  0.00000000E+00  0.00000000E+00  0.00000000E+00
  0.00000000E+00  0.00000000E+00  0.00000000E+00
  0.00000000E+00  0.00000000E+00  0.00000000E+00
  0.00000000E+00  0.00000000E+00  0.00000000E+00
  0.00000000E+00  0.00000000E+00  0.00000000E+00
  0.00000000E+00  0.00000000E+00  0.00000000E+00
  0.00000000E+00  0.00000000E+00  0.00000000E+00
  0.00000000E+00  0.00000000E+00  0.00000000E+00
  0.00000000E+00  0.00000000E+00  0.00000000E+00
  0.00000000E+00  0.00000000E+00  0.00000000E+00
  0.00000000E+00  0.00000000E+00  0.00000000E+00
  0.00000000E+00  0.00000000E+00  0.00000000E+00
  0.00000000E+00  0.00000000E+00  0.00000000E+00
  0.00000000E+00  0.00000000E+00  0.00000000E+00
  0.00000000E+00  0.00000000E+00  0.00000000E+00
  0.00000000E+00  0.00000000E+00  0.00000000E+00
  0.00000000E+00  0.00000000E+00  0.00000000E+00
  0.00000000E+00  0.00000000E+00  0.00000000E+00
  0.00000000E+00  0.00000000E+00  0.00000000E+00
  0.00000000E+00  0.00000000E+00  0.00000000E+00
  0.00000000E+00  0.00000000E+00  0.00000000E+00
  0.00000000E+00  0.00000000E+00  0.00000000E+00
  0.00000000E+00  0.00000000E+00  0.00000000E+00
  0.00000000E+00  0.00000000E+00  0.00000000E+00
  0.00000000E+00  0.00000000E+00  0.00000000E+00
  0.00000000E+00  0.00000000E+00  0.00000000E+00
  0.00000000E+00  0.00000000E+00  0.00000000E+00
  0.00000000E+00  0.00000000E+00  0.00000000E+00
  0.00000000E+00  0.00000000E+00  0.00000000E+00
  0.00000000E+00  0.00000000E+00  0.00000000E+00
  0.00000000E+00  0.00000000E+00  0.00000000E+00
  0.00000000E+00  0.00000000E+00  0.00000000E+00
  0.00000000E+00  0.00000000E+00  0.00000000E+00
  0.00000000E+00  0.00000000E+00  0.00000000E+00
  0.00000000E+00  0.00000000E+00  0.00000000E+00
  0.00000000E+00  0.00000000E+00  0.00000000E+00
  0.00000000E+00  0.00000000E+00  0.00000000E+00
  0.00000000E+00  0.00000000E+00  0.00000000E+00
  0.00000000E+00  0.00000000E+00  0.00000000E+00
  0.00000000E+00  0.00000000E+00  0.00000000E+00
  0.00000000E+00  0.00000000E+00  0.00000000E+00
  0.00000000E+00  0.00000000E+00  0.00000000E+00
  0.00000000E+00  0.00000000E+00  0.00000000E+00
  0.00000000E+00  0.00000000E+00  0.00000000E+00
  0.00000000E+00  0.00000000E+00  0.00000000E+00
  0.00000000E+00  0.00000000E+00  0.00000000E+00
  0.00000000E+00  0.00000000E+00  0.00000000E+00
  0.00000000E+00  0.00000000E+00  0.00000000E+00
  0.00000000E+00  0.00000000E+00  0.00000000E+00
  0.00000000E+00  0.00000000E+00  0.00000000E+00
  0.00000000E+00  0.00000000E+00  0.00000000E+00
  0.00000000E+00  0.00000000E+00  0.00000000E+00
  0.00000000E+00  0.00000000E+00  0.00000000E+00
  0.00000000E+00  0.00000000E+00  0.00000000E+00
  0.00000000E+00  0.00000000E+00  0.00000000E+00
  0.00000000E+00  0.00000000E+00  0.00000000E+00
  0.00000000E+00  0.00000000E+00  0.00000000E+00
