Primitive Cell                          
   1.00000000000000     
    14.9204346149177223   -0.0176436682015087    0.0000000000000000
     7.4449374430196595   12.9302972458712677    0.0000000000000000
     0.0000000000000000    0.0000000000000000   20.0000000000000000
   C    N    H 
    30     3    21
Direct
  0.5834955967240347  0.7465327739533549  0.5152218501175128
  0.5257857840508535  0.8617220501075593  0.5157801134120774
  0.4963010737843589  0.9148143046991564  0.5765741412337348
  0.6918032423901792  0.6918032423901792  0.5150371553426396
  0.7465327739533549  0.5834955967240347  0.5152218501175128
  0.5832673209369403  0.5832673209369403  0.5151506226350477
  0.5299350890140033  0.6915675882381436  0.5152353087297357
  0.6915675882381436  0.5299350890140033  0.5152353087297357
  0.5255619115278662  0.5255619115278662  0.5153440311238242
  0.4988752867187216  0.4988752867187216  0.5760759018825468
  0.8617220501075593  0.5257857840508535  0.5157801134120774
  0.9148143046991564  0.4963010737843589  0.5765741412337348
  0.5002371130598462  0.9178647336259260  0.4558190614120861
  0.4976410262385969  0.4976410262385969  0.4551850143419145
  0.9178647336259260  0.5002371130598462  0.4558190614120861
  0.2501620801611750  0.4117450154071349  0.5189536197915672
  0.4443928808101916  0.4443928808101916  0.5782952073136016
  0.4163279606026364  0.4163279606026364  0.5174147977299342
  0.0234461761421585  0.4414244414679089  0.5789770582503238
  0.0797416870190162  0.4158461673659630  0.5183575668845180
  0.4436048538718822  0.4436048538718822  0.4570250753565119
  0.0256696588717986  0.4459054490706862  0.4578430866179346
  0.3582852820139664  0.1949179159947505  0.5192597965345840
  0.2498922097847185  0.2498922097847185  0.5201745976358083
  0.1949179159947505  0.3582852820139664  0.5192597965345840
  0.3586280079728255  0.3586280079728255  0.5184190982914672
  0.4117450154071349  0.2501620801611750  0.5189536197915672
  0.4414244414679089  0.0234461761421585  0.5789770582503238
  0.4158461673659630  0.0797416870190162  0.5183575668845180
  0.4459054490706862  0.0256696588717986  0.4578430866179346
  0.4187374870594240  0.4187374870594240  0.6387413833754039
  0.0747062267285585  0.4092013650138711  0.6400166457287781
  0.4092013650138711  0.0747062267285585  0.6400166457287781
  0.4455858819333613  0.7336960613964294  0.5153002046824469
  0.7340587781403585  0.7340587781403585  0.5150448651714044
  0.5162186951123218  0.8708343227375579  0.6231997649163930
  0.2080555202515058  0.4961069873243815  0.5181998972534743
  0.5208108371448574  0.5208108371448574  0.6227910396288578
  0.8708343227375579  0.5162186951123218  0.6231997649163930
  0.5227522192635021  0.8771512465943374  0.4081221294735187
  0.5181792398765168  0.5181792398765168  0.4075698028643373
  0.8771512465943374  0.5227522192635021  0.4081221294735187
  0.7336960613964294  0.4455858819333613  0.5153002046824469
  0.4385215615041105  0.4385215615041105  0.6821945154846816
  0.0347750549505648  0.4501051401907787  0.6807029127884832
  0.4216000002852311  0.4216000002852311  0.4104171737148690
  0.0698196855793540  0.4258765182909414  0.4113559890381566
  0.4961069873243815  0.2080555202515058  0.5181998972534743
  0.2076458357983952  0.2076458357983952  0.5207948893288332
  0.3796871506776682  0.3796871506776682  0.6401505506314180
  0.1497817562044261  0.3914112463152222  0.6399632157581152
  0.4501051401907787  0.0347750549505648  0.6807029127884832
  0.3914112463152222  0.1497817562044261  0.6399632157581152
  0.4258765182909414  0.0698196855793540  0.4113559890381566
 
  0.00000000E+00  0.00000000E+00  0.00000000E+00
  0.00000000E+00  0.00000000E+00  0.00000000E+00
  0.00000000E+00  0.00000000E+00  0.00000000E+00
  0.00000000E+00  0.00000000E+00  0.00000000E+00
  0.00000000E+00  0.00000000E+00  0.00000000E+00
  0.00000000E+00  0.00000000E+00  0.00000000E+00
  0.00000000E+00  0.00000000E+00  0.00000000E+00
  0.00000000E+00  0.00000000E+00  0.00000000E+00
  0.00000000E+00  0.00000000E+00  0.00000000E+00
  0.00000000E+00  0.00000000E+00  0.00000000E+00
  0.00000000E+00  0.00000000E+00  0.00000000E+00
  0.00000000E+00  0.00000000E+00  0.00000000E+00
  0.00000000E+00  0.00000000E+00  0.00000000E+00
  0.00000000E+00  0.00000000E+00  0.00000000E+00
  0.00000000E+00  0.00000000E+00  0.00000000E+00
  0.00000000E+00  0.00000000E+00  0.00000000E+00
  0.00000000E+00  0.00000000E+00  0.00000000E+00
  0.00000000E+00  0.00000000E+00  0.00000000E+00
  0.00000000E+00  0.00000000E+00  0.00000000E+00
  0.00000000E+00  0.00000000E+00  0.00000000E+00
  0.00000000E+00  0.00000000E+00  0.00000000E+00
  0.00000000E+00  0.00000000E+00  0.00000000E+00
  0.00000000E+00  0.00000000E+00  0.00000000E+00
  0.00000000E+00  0.00000000E+00  0.00000000E+00
  0.00000000E+00  0.00000000E+00  0.00000000E+00
  0.00000000E+00  0.00000000E+00  0.00000000E+00
  0.00000000E+00  0.00000000E+00  0.00000000E+00
  0.00000000E+00  0.00000000E+00  0.00000000E+00
  0.00000000E+00  0.00000000E+00  0.00000000E+00
  0.00000000E+00  0.00000000E+00  0.00000000E+00
  0.00000000E+00  0.00000000E+00  0.00000000E+00
  0.00000000E+00  0.00000000E+00  0.00000000E+00
  0.00000000E+00  0.00000000E+00  0.00000000E+00
  0.00000000E+00  0.00000000E+00  0.00000000E+00
  0.00000000E+00  0.00000000E+00  0.00000000E+00
  0.00000000E+00  0.00000000E+00  0.00000000E+00
  0.00000000E+00  0.00000000E+00  0.00000000E+00
  0.00000000E+00  0.00000000E+00  0.00000000E+00
  0.00000000E+00  0.00000000E+00  0.00000000E+00
  0.00000000E+00  0.00000000E+00  0.00000000E+00
  0.00000000E+00  0.00000000E+00  0.00000000E+00
  0.00000000E+00  0.00000000E+00  0.00000000E+00
  0.00000000E+00  0.00000000E+00  0.00000000E+00
  0.00000000E+00  0.00000000E+00  0.00000000E+00
  0.00000000E+00  0.00000000E+00  0.00000000E+00
  0.00000000E+00  0.00000000E+00  0.00000000E+00
  0.00000000E+00  0.00000000E+00  0.00000000E+00
  0.00000000E+00  0.00000000E+00  0.00000000E+00
  0.00000000E+00  0.00000000E+00  0.00000000E+00
  0.00000000E+00  0.00000000E+00  0.00000000E+00
  0.00000000E+00  0.00000000E+00  0.00000000E+00
  0.00000000E+00  0.00000000E+00  0.00000000E+00
  0.00000000E+00  0.00000000E+00  0.00000000E+00
  0.00000000E+00  0.00000000E+00  0.00000000E+00
