Primitive Cell                          
   1.00000000000000     
    21.8036437368394580    0.0000000000000000    0.0000000000000000
   -10.9018218684197326   18.8825093711684389    0.0000000000000000
     0.0000000000000000    0.0000000000000000   20.0000000000000000
   H    O    N    C 
    12     6    12    42
Direct
  0.4100259532330028  0.5899740467669972  0.3801699628650823
  0.4158693200752595  0.5841306799247405  0.5962870355716205
  0.1799480935339943  0.5899740467669972  0.3801699628650823
  0.4100259532330028  0.8200519064660057  0.3801699628650823
  0.1682613598494882  0.5841306799247405  0.5962870355716205
  0.4158693200752595  0.8317386401505189  0.5962870355716205
  0.8197492710868701  0.4098746355434315  0.3806056476025503
  0.5901253644565685  0.1802507289131299  0.3806056476025503
  0.5901253644565685  0.4098746355434315  0.3806056476025503
  0.8320053519425485  0.4160026759712849  0.5967060813000629
  0.5839973240287151  0.1679946480574515  0.5967060813000629
  0.5839973240287151  0.4160026759712849  0.5967060813000629
  0.4634579698976253  0.5365420301023747  0.3067185038885611
  0.0730840602047635  0.5365420301023747  0.3067185038885611
  0.9263821503441534  0.4631910751720767  0.3069467280060820
  0.4634579698976253  0.9269159397952365  0.3067185038885611
  0.5368089248279233  0.0736178496558466  0.3069467280060820
  0.5368089248279233  0.4631910751720767  0.3069467280060820
  0.4063820950450250  0.7031910475225160  0.4921884883603056
  0.2968089524774840  0.5936179049549750  0.4921884883603056
  0.4636529363981481  0.5363470636018519  0.5463091705806775
  0.2968089524774840  0.7031910475225160  0.4921884883603056
  0.9274252647333370  0.4637126323666720  0.5464945047587193
  0.0726941272037109  0.5363470636018519  0.5463091705806775
  0.5362873676333280  0.0725747352666630  0.5464945047587193
  0.4636529363981481  0.9273058727962891  0.5463091705806775
  0.5936333497722330  0.2968166748861165  0.4927665097370451
  0.7031833251138835  0.4063666502277670  0.4927665097370451
  0.7031833251138835  0.2968166748861165  0.4927665097370451
  0.5362873676333280  0.4637126323666720  0.5464945047587193
  0.3679252544571128  0.6320747455428872  0.4920021266900747
  0.4803162254306557  0.5196837745693443  0.4869284389961308
  0.4072965330791121  0.5927034669208879  0.4888798606069642
  0.4244728838309655  0.5755271161690416  0.4274252673792915
  0.4615098916380731  0.5384901083619269  0.4257892510041117
  0.4795623930660682  0.5204376069339318  0.3598462299734635
  0.4283530565870421  0.5716469434129579  0.5469304525172021
  0.3679252544571128  0.7358505089142042  0.4920021266900747
  0.2641494910857958  0.6320747455428872  0.4920021266900747
  0.1854069338417688  0.5927034669208879  0.4888798606069642
  0.1510542323380761  0.5755271161690416  0.4274252673792915
  0.4072965330791121  0.8145930661582312  0.4888798606069642
  0.4244728838309655  0.8489457676619239  0.4274252673792915
  0.1432938868259157  0.5716469434129579  0.5469304525172021
  0.4283530565870421  0.8567061131740843  0.5469304525172021
  0.9606030925945035  0.4803015462972553  0.4870363104503426
  0.9228358899582076  0.4614179449791038  0.4259931184657688
  0.0393675491386958  0.5196837745693443  0.4869284389961308
  0.0769802167238609  0.5384901083619269  0.4257892510041117
  0.0408752138678707  0.5204376069339318  0.3598462299734635
  0.9587690746480249  0.4793845373240160  0.3599706960523861
  0.5196984537027447  0.0393969074054965  0.4870363104503426
  0.5385820550208962  0.0771641100417924  0.4259931184657688
  0.4803162254306557  0.9606324508613042  0.4869284389961308
  0.4615098916380731  0.9230197832761391  0.4257892510041117
  0.4795623930660682  0.9591247861321293  0.3598462299734635
  0.5206154626759840  0.0412309253519751  0.3599706960523861
  0.6320765652034765  0.2641531304069602  0.4925691033851081
  0.6320765652034765  0.3679234347965235  0.4925691033851081
  0.7358468695930398  0.3679234347965235  0.4925691033851081
  0.8145762542992543  0.4072881271496342  0.4893274582567315
  0.8487700925224857  0.4243850462612428  0.4277936030812199
  0.5927118728503658  0.1854237457007457  0.4893274582567315
  0.5756149537387572  0.1512299074775143  0.4277936030812199
  0.5927118728503658  0.4072881271496342  0.4893274582567315
  0.5196984537027447  0.4803015462972553  0.4870363104503426
  0.5385820550208962  0.4614179449791038  0.4259931184657688
  0.5756149537387572  0.4243850462612428  0.4277936030812199
  0.5206154626759840  0.4793845373240160  0.3599706960523861
  0.8568340810067099  0.4284170405033549  0.5472833893504898
  0.5715829594966451  0.1431659189932901  0.5472833893504898
  0.5715829594966451  0.4284170405033549  0.5472833893504898
 
  0.00000000E+00  0.00000000E+00  0.00000000E+00
  0.00000000E+00  0.00000000E+00  0.00000000E+00
  0.00000000E+00  0.00000000E+00  0.00000000E+00
  0.00000000E+00  0.00000000E+00  0.00000000E+00
  0.00000000E+00  0.00000000E+00  0.00000000E+00
  0.00000000E+00  0.00000000E+00  0.00000000E+00
  0.00000000E+00  0.00000000E+00  0.00000000E+00
  0.00000000E+00  0.00000000E+00  0.00000000E+00
  0.00000000E+00  0.00000000E+00  0.00000000E+00
  0.00000000E+00  0.00000000E+00  0.00000000E+00
  0.00000000E+00  0.00000000E+00  0.00000000E+00
  0.00000000E+00  0.00000000E+00  0.00000000E+00
  0.00000000E+00  0.00000000E+00  0.00000000E+00
  0.00000000E+00  0.00000000E+00  0.00000000E+00
  0.00000000E+00  0.00000000E+00  0.00000000E+00
  0.00000000E+00  0.00000000E+00  0.00000000E+00
  0.00000000E+00  0.00000000E+00  0.00000000E+00
  0.00000000E+00  0.00000000E+00  0.00000000E+00
  0.00000000E+00  0.00000000E+00  0.00000000E+00
  0.00000000E+00  0.00000000E+00  0.00000000E+00
  0.00000000E+00  0.00000000E+00  0.00000000E+00
  0.00000000E+00  0.00000000E+00  0.00000000E+00
  0.00000000E+00  0.00000000E+00  0.00000000E+00
  0.00000000E+00  0.00000000E+00  0.00000000E+00
  0.00000000E+00  0.00000000E+00  0.00000000E+00
  0.00000000E+00  0.00000000E+00  0.00000000E+00
  0.00000000E+00  0.00000000E+00  0.00000000E+00
  0.00000000E+00  0.00000000E+00  0.00000000E+00
  0.00000000E+00  0.00000000E+00  0.00000000E+00
  0.00000000E+00  0.00000000E+00  0.00000000E+00
  0.00000000E+00  0.00000000E+00  0.00000000E+00
  0.00000000E+00  0.00000000E+00  0.00000000E+00
  0.00000000E+00  0.00000000E+00  0.00000000E+00
  0.00000000E+00  0.00000000E+00  0.00000000E+00
  0.00000000E+00  0.00000000E+00  0.00000000E+00
  0.00000000E+00  0.00000000E+00  0.00000000E+00
  0.00000000E+00  0.00000000E+00  0.00000000E+00
  0.00000000E+00  0.00000000E+00  0.00000000E+00
  0.00000000E+00  0.00000000E+00  0.00000000E+00
  0.00000000E+00  0.00000000E+00  0.00000000E+00
  0.00000000E+00  0.00000000E+00  0.00000000E+00
  0.00000000E+00  0.00000000E+00  0.00000000E+00
  0.00000000E+00  0.00000000E+00  0.00000000E+00
  0.00000000E+00  0.00000000E+00  0.00000000E+00
  0.00000000E+00  0.00000000E+00  0.00000000E+00
  0.00000000E+00  0.00000000E+00  0.00000000E+00
  0.00000000E+00  0.00000000E+00  0.00000000E+00
  0.00000000E+00  0.00000000E+00  0.00000000E+00
  0.00000000E+00  0.00000000E+00  0.00000000E+00
  0.00000000E+00  0.00000000E+00  0.00000000E+00
  0.00000000E+00  0.00000000E+00  0.00000000E+00
  0.00000000E+00  0.00000000E+00  0.00000000E+00
  0.00000000E+00  0.00000000E+00  0.00000000E+00
  0.00000000E+00  0.00000000E+00  0.00000000E+00
  0.00000000E+00  0.00000000E+00  0.00000000E+00
  0.00000000E+00  0.00000000E+00  0.00000000E+00
  0.00000000E+00  0.00000000E+00  0.00000000E+00
  0.00000000E+00  0.00000000E+00  0.00000000E+00
  0.00000000E+00  0.00000000E+00  0.00000000E+00
  0.00000000E+00  0.00000000E+00  0.00000000E+00
  0.00000000E+00  0.00000000E+00  0.00000000E+00
  0.00000000E+00  0.00000000E+00  0.00000000E+00
  0.00000000E+00  0.00000000E+00  0.00000000E+00
  0.00000000E+00  0.00000000E+00  0.00000000E+00
  0.00000000E+00  0.00000000E+00  0.00000000E+00
  0.00000000E+00  0.00000000E+00  0.00000000E+00
  0.00000000E+00  0.00000000E+00  0.00000000E+00
  0.00000000E+00  0.00000000E+00  0.00000000E+00
  0.00000000E+00  0.00000000E+00  0.00000000E+00
  0.00000000E+00  0.00000000E+00  0.00000000E+00
  0.00000000E+00  0.00000000E+00  0.00000000E+00
  0.00000000E+00  0.00000000E+00  0.00000000E+00
