Primitive Cell                          
   1.00000000000000     
    25.4078809143593389    0.1047083881255518    0.0000000000000000
     0.0881750700192909   25.5266122195987109    0.0000000000000000
     0.0000000000000000    0.0000000000000000   20.0000000000000000
   N    H    O    C 
    12    50     2    64
Direct
  0.9872857307336389  0.4627965735664077  0.4285554688944302
  0.9866100164050806  0.5962283558783525  0.4993352895936880
  0.5159035577207405  0.9903164670914890  0.4297105011970075
  0.3804626397290392  0.9889734768507310  0.4960335332944865
  0.0437689305924351  0.0496708209863073  0.4921016958309394
  0.9305558954236801  0.0445278657549011  0.5143846104826082
  0.9319984130744174  0.9285264416884047  0.5124227696628694
  0.0454306062864731  0.9338750160405453  0.4903383460242310
  0.9863766692189131  0.4573542953684679  0.5453422961842733
  0.9887589657859976  0.3809031052869898  0.4765127884153912
  0.5190775039940760  0.9875008322944296  0.5465744807571156
  0.5971877484504802  0.9909128072822284  0.4803545931845932
  0.0083492687136228  0.2924126715913218  0.4198125824781513
  0.0109958212802042  0.1948290063928724  0.4135032854122258
  0.7845213928144474  0.0197897020042817  0.4266746907505166
  0.6863828991635330  0.0157404561851990  0.4294488464409412
  0.0230171943009267  0.7997168306927023  0.3820196741654982
  0.0254473400854991  0.7032501201581880  0.3652432582763865
  0.2748232373189694  0.0296599270678115  0.3596919168318422
  0.1776000880644801  0.0261020488543835  0.3732183914708287
  0.9884565561919700  0.4432887661334632  0.3840707897490319
  0.5363406794812704  0.9923683246494974  0.3858985884936672
  0.9510289039007773  0.2827475919140738  0.6221998741823356
  0.9529081636433148  0.1854704826420743  0.6154029330158721
  0.0884174813573750  0.1702987123904904  0.5037442070534155
  0.1640262885672428  0.0971316270641935  0.4875035432094421
  0.0157629965743595  0.0212089427927040  0.4932547194442591
  0.9600282040817163  0.9569616273543744  0.5120297675530665
  0.8775291754046037  0.1656744706485753  0.5248029367322076
  0.8061018666649176  0.0890331492042478  0.5319481258708478
  0.7915661646365848  0.9497528447880157  0.6223723124571379
  0.6937155923112712  0.9469479576479500  0.6260151337097071
  0.8116385826152026  0.8811306317636749  0.5111945408849152
  0.8874660526413933  0.8082746307684303  0.4948050064272707
  0.1696501764728282  0.8892935183832975  0.4703928685006815
  0.0979899535384234  0.8126489166384800  0.4780245103343788
  0.9644865856514429  0.7772557721249811  0.5819758856311665
  0.9674800311963097  0.6805317884381523  0.5653407177814245
  0.1974862480359221  0.9615101283250027  0.5705210959413236
  0.2949600167923165  0.9662836669448183  0.5576422810163280
  0.0140027946720096  0.6161710493607941  0.4035258861923765
  0.6089793074004959  0.9640461302403764  0.5776987942365963
  0.9654186154266782  0.3675523238736815  0.5749787478166937
  0.3618317599968748  0.0174139649980845  0.4001787542749398
  0.0210789788116230  0.4634820400191586  0.6682481063863150
  0.9844821561066155  0.5049440470177018  0.7232796070709782
  0.9513647113986963  0.4619764328642475  0.6673427177091682
  0.0697274483837802  0.5450681625045846  0.6259937211841446
  0.0331557321929807  0.6016850934053579  0.6012820613885523
  0.0326123540467833  0.5806997620857786  0.6863863501709986
  0.8986200615838627  0.5393867891065653  0.6247935013288384
  0.9322330018756162  0.5800296081569414  0.6827643624399187
  0.9305130931436523  0.5971651301540746  0.5961557771888266
  0.5097274674023353  0.0192059364968671  0.6706950594658068
  0.4674870383174792  0.9813663219063571  0.7226756381529285
  0.5123656039214879  0.9498825856735138  0.6669147587249782
  0.4280979687178217  0.0687414625449634  0.6275728261602893
  0.3723300400849539  0.0331089758378482  0.5991687478565808
  0.3913718503808994  0.0303634009092804  0.6849847912705727
  0.4361326716538585  0.8985165031175413  0.6194404219679583
  0.3939258301835622  0.9305420871601484  0.6777069209754103
  0.3781777805674906  0.9311796442526585  0.5906428344551529
  0.9896054571656592  0.5395148310513989  0.3704267455769070
  0.4400040457652494  0.9947253535554026  0.3692237915580279
  0.2033716338024263  0.0130498969095285  0.4136436274064792
  0.2577932288025124  0.0150609116429692  0.4061836424789149
  0.0109780960067667  0.7735596474634505  0.4222475575732929
  0.0122883074524438  0.7195689892909343  0.4129329251802361
  0.7098103214828910  0.0017400512204517  0.4715769074063374
  0.7643030663636594  0.0039201294785371  0.4702386512455234
  0.9980430460467105  0.2143724252334991  0.4592019387223658
  0.9966048648733548  0.2686089430497560  0.4624656794156081
  0.9873813905351696  0.5426059933171530  0.4920203556979459
  0.9883389277571339  0.5176363877707999  0.4257256795278650
  0.4344758209892277  0.9898566716846631  0.4905214343345463
  0.4608738310704155  0.9920215129435235  0.4251419490115822
  0.0831966151300847  0.1284349526735227  0.4978367557957029
  0.1218564046550981  0.0910964849531481  0.4895927045481443
  0.0970928757252310  0.0408701215761909  0.4861535294740946
  0.0334146340953794  0.1023266906558788  0.4994659686623351
  0.9835796910070655  0.1254495823045403  0.5097386640015458
  0.9357840633471071  0.0978995481126717  0.5161694553359979
  0.8775910469103181  0.0357195873062963  0.5201754093412276
  0.8484079250651320  0.0849110309734513  0.5261561203364806
  0.8846683986650206  0.1237237290152251  0.5231570390478240
  0.8530618485180597  0.9862917694683730  0.5211203130363842
  0.8786102176027413  0.9373287688653562  0.5166081114454215
  0.9423818469240359  0.8759802355619257  0.5030651313836287
  0.8925542734575771  0.8499874243997141  0.5023677475942705
  0.8538247943817652  0.8872294582938594  0.5107446931481761
  0.9921708464898416  0.8529267375044469  0.4924512703176092
  0.0400803119868200  0.8805360463214740  0.4878236131195024
  0.0983291107742019  0.9425837605032044  0.4833905077525316
  0.1273976999879807  0.8933705062592594  0.4767920012458973
  0.0911030954519134  0.8546238781546052  0.4801179756352383
  0.1227561411292939  0.9920267906729805  0.4809943741720986
  0.1809911564406761  0.9936486551942991  0.4727926480814659
  0.2915055239944664  0.9984145851290194  0.4579516791406348
  0.2689672342005380  0.9789501223998229  0.5172892931344180
  0.2146820688656064  0.9763846809565067  0.5243406493631895
  0.9936037965269691  0.7951652608083108  0.4831155170865529
  0.9966563361819141  0.6853115957906013  0.4642598158715430
  0.9791992941269498  0.7069617695976831  0.5252756167400392
  0.9775282835266594  0.7608743581506872  0.5343197109303830
  0.7945514496735555  0.9849539572999859  0.5243009279691790
  0.7684591041948963  0.9641892748718277  0.5801611763461736
  0.7137335552852164  0.9626109058781651  0.5820949964221569
  0.6836285082756817  0.9809918804189337  0.5277206986027991
  0.9820258395875925  0.1835329436004827  0.5139965807849123
  0.9648697249795859  0.2089641132510920  0.5725529946262213
  0.9795080219017720  0.2940494931843887  0.5212857895684806
  0.9638863025446653  0.2633690069151342  0.5762609692131235
  0.9996756293339146  0.6289624736080697  0.4527060602588335
  0.6266852771917968  0.9779861476512721  0.5306862549461542
  0.9773863693616178  0.3506712051464120  0.5265088695227575
  0.3482881471978416  0.0023261163996295  0.4485593849085063
  0.9859328292689824  0.5104644446232669  0.5495442396317429
  0.9870671936591577  0.4345921949023221  0.4862801768446445
  0.9845648457064868  0.5325135310981963  0.6211910610217473
  0.9854424319745689  0.4878178992064548  0.6728295819367105
  0.0330282983150667  0.5673153297636802  0.6340865059115401
  0.9332377158348066  0.5644573140658906  0.6314690276229840
  0.4656105357576834  0.9871047743627486  0.5489839773234664
  0.5430804206470938  0.9890449812401059  0.4882857560038474
  0.4419837830245896  0.9841171825665285  0.6197497428054959
  0.4857624481623475  0.9836407964048277  0.6729246308526129
  0.4060595157174163  0.0320827362087357  0.6332788310123263
  0.4104055739361456  0.9328635977776685  0.6269269464209941
 
  0.00000000E+00  0.00000000E+00  0.00000000E+00
  0.00000000E+00  0.00000000E+00  0.00000000E+00
  0.00000000E+00  0.00000000E+00  0.00000000E+00
  0.00000000E+00  0.00000000E+00  0.00000000E+00
  0.00000000E+00  0.00000000E+00  0.00000000E+00
  0.00000000E+00  0.00000000E+00  0.00000000E+00
  0.00000000E+00  0.00000000E+00  0.00000000E+00
  0.00000000E+00  0.00000000E+00  0.00000000E+00
  0.00000000E+00  0.00000000E+00  0.00000000E+00
  0.00000000E+00  0.00000000E+00  0.00000000E+00
  0.00000000E+00  0.00000000E+00  0.00000000E+00
  0.00000000E+00  0.00000000E+00  0.00000000E+00
  0.00000000E+00  0.00000000E+00  0.00000000E+00
  0.00000000E+00  0.00000000E+00  0.00000000E+00
  0.00000000E+00  0.00000000E+00  0.00000000E+00
  0.00000000E+00  0.00000000E+00  0.00000000E+00
  0.00000000E+00  0.00000000E+00  0.00000000E+00
  0.00000000E+00  0.00000000E+00  0.00000000E+00
  0.00000000E+00  0.00000000E+00  0.00000000E+00
  0.00000000E+00  0.00000000E+00  0.00000000E+00
  0.00000000E+00  0.00000000E+00  0.00000000E+00
  0.00000000E+00  0.00000000E+00  0.00000000E+00
  0.00000000E+00  0.00000000E+00  0.00000000E+00
  0.00000000E+00  0.00000000E+00  0.00000000E+00
  0.00000000E+00  0.00000000E+00  0.00000000E+00
  0.00000000E+00  0.00000000E+00  0.00000000E+00
  0.00000000E+00  0.00000000E+00  0.00000000E+00
  0.00000000E+00  0.00000000E+00  0.00000000E+00
  0.00000000E+00  0.00000000E+00  0.00000000E+00
  0.00000000E+00  0.00000000E+00  0.00000000E+00
  0.00000000E+00  0.00000000E+00  0.00000000E+00
  0.00000000E+00  0.00000000E+00  0.00000000E+00
  0.00000000E+00  0.00000000E+00  0.00000000E+00
  0.00000000E+00  0.00000000E+00  0.00000000E+00
  0.00000000E+00  0.00000000E+00  0.00000000E+00
  0.00000000E+00  0.00000000E+00  0.00000000E+00
  0.00000000E+00  0.00000000E+00  0.00000000E+00
  0.00000000E+00  0.00000000E+00  0.00000000E+00
  0.00000000E+00  0.00000000E+00  0.00000000E+00
  0.00000000E+00  0.00000000E+00  0.00000000E+00
  0.00000000E+00  0.00000000E+00  0.00000000E+00
  0.00000000E+00  0.00000000E+00  0.00000000E+00
  0.00000000E+00  0.00000000E+00  0.00000000E+00
  0.00000000E+00  0.00000000E+00  0.00000000E+00
  0.00000000E+00  0.00000000E+00  0.00000000E+00
  0.00000000E+00  0.00000000E+00  0.00000000E+00
  0.00000000E+00  0.00000000E+00  0.00000000E+00
  0.00000000E+00  0.00000000E+00  0.00000000E+00
  0.00000000E+00  0.00000000E+00  0.00000000E+00
  0.00000000E+00  0.00000000E+00  0.00000000E+00
  0.00000000E+00  0.00000000E+00  0.00000000E+00
  0.00000000E+00  0.00000000E+00  0.00000000E+00
  0.00000000E+00  0.00000000E+00  0.00000000E+00
  0.00000000E+00  0.00000000E+00  0.00000000E+00
  0.00000000E+00  0.00000000E+00  0.00000000E+00
  0.00000000E+00  0.00000000E+00  0.00000000E+00
  0.00000000E+00  0.00000000E+00  0.00000000E+00
  0.00000000E+00  0.00000000E+00  0.00000000E+00
  0.00000000E+00  0.00000000E+00  0.00000000E+00
  0.00000000E+00  0.00000000E+00  0.00000000E+00
  0.00000000E+00  0.00000000E+00  0.00000000E+00
  0.00000000E+00  0.00000000E+00  0.00000000E+00
  0.00000000E+00  0.00000000E+00  0.00000000E+00
  0.00000000E+00  0.00000000E+00  0.00000000E+00
  0.00000000E+00  0.00000000E+00  0.00000000E+00
  0.00000000E+00  0.00000000E+00  0.00000000E+00
  0.00000000E+00  0.00000000E+00  0.00000000E+00
  0.00000000E+00  0.00000000E+00  0.00000000E+00
  0.00000000E+00  0.00000000E+00  0.00000000E+00
  0.00000000E+00  0.00000000E+00  0.00000000E+00
  0.00000000E+00  0.00000000E+00  0.00000000E+00
  0.00000000E+00  0.00000000E+00  0.00000000E+00
  0.00000000E+00  0.00000000E+00  0.00000000E+00
  0.00000000E+00  0.00000000E+00  0.00000000E+00
  0.00000000E+00  0.00000000E+00  0.00000000E+00
  0.00000000E+00  0.00000000E+00  0.00000000E+00
  0.00000000E+00  0.00000000E+00  0.00000000E+00
  0.00000000E+00  0.00000000E+00  0.00000000E+00
  0.00000000E+00  0.00000000E+00  0.00000000E+00
  0.00000000E+00  0.00000000E+00  0.00000000E+00
  0.00000000E+00  0.00000000E+00  0.00000000E+00
  0.00000000E+00  0.00000000E+00  0.00000000E+00
  0.00000000E+00  0.00000000E+00  0.00000000E+00
  0.00000000E+00  0.00000000E+00  0.00000000E+00
  0.00000000E+00  0.00000000E+00  0.00000000E+00
  0.00000000E+00  0.00000000E+00  0.00000000E+00
  0.00000000E+00  0.00000000E+00  0.00000000E+00
  0.00000000E+00  0.00000000E+00  0.00000000E+00
  0.00000000E+00  0.00000000E+00  0.00000000E+00
  0.00000000E+00  0.00000000E+00  0.00000000E+00
  0.00000000E+00  0.00000000E+00  0.00000000E+00
  0.00000000E+00  0.00000000E+00  0.00000000E+00
  0.00000000E+00  0.00000000E+00  0.00000000E+00
  0.00000000E+00  0.00000000E+00  0.00000000E+00
  0.00000000E+00  0.00000000E+00  0.00000000E+00
  0.00000000E+00  0.00000000E+00  0.00000000E+00
  0.00000000E+00  0.00000000E+00  0.00000000E+00
  0.00000000E+00  0.00000000E+00  0.00000000E+00
  0.00000000E+00  0.00000000E+00  0.00000000E+00
  0.00000000E+00  0.00000000E+00  0.00000000E+00
  0.00000000E+00  0.00000000E+00  0.00000000E+00
  0.00000000E+00  0.00000000E+00  0.00000000E+00
  0.00000000E+00  0.00000000E+00  0.00000000E+00
  0.00000000E+00  0.00000000E+00  0.00000000E+00
  0.00000000E+00  0.00000000E+00  0.00000000E+00
  0.00000000E+00  0.00000000E+00  0.00000000E+00
  0.00000000E+00  0.00000000E+00  0.00000000E+00
  0.00000000E+00  0.00000000E+00  0.00000000E+00
  0.00000000E+00  0.00000000E+00  0.00000000E+00
  0.00000000E+00  0.00000000E+00  0.00000000E+00
  0.00000000E+00  0.00000000E+00  0.00000000E+00
  0.00000000E+00  0.00000000E+00  0.00000000E+00
  0.00000000E+00  0.00000000E+00  0.00000000E+00
  0.00000000E+00  0.00000000E+00  0.00000000E+00
  0.00000000E+00  0.00000000E+00  0.00000000E+00
  0.00000000E+00  0.00000000E+00  0.00000000E+00
  0.00000000E+00  0.00000000E+00  0.00000000E+00
  0.00000000E+00  0.00000000E+00  0.00000000E+00
  0.00000000E+00  0.00000000E+00  0.00000000E+00
  0.00000000E+00  0.00000000E+00  0.00000000E+00
  0.00000000E+00  0.00000000E+00  0.00000000E+00
  0.00000000E+00  0.00000000E+00  0.00000000E+00
  0.00000000E+00  0.00000000E+00  0.00000000E+00
  0.00000000E+00  0.00000000E+00  0.00000000E+00
  0.00000000E+00  0.00000000E+00  0.00000000E+00
  0.00000000E+00  0.00000000E+00  0.00000000E+00
  0.00000000E+00  0.00000000E+00  0.00000000E+00
  0.00000000E+00  0.00000000E+00  0.00000000E+00
