Primitive Cell                          
   1.00000000000000     
    21.7636177519127969    0.0000000000000000    0.0000000000000000
   -10.8818088759563985   18.8478458514104510    0.0000000000000000
     0.0000000000000000    0.0000000000000000   20.0000000000000000
   N    H    C 
    12    18    42
Direct
  0.4071264272550223  0.2035632136275041  0.5532162950585686
  0.6300527732066428  0.2601055464132855  0.4953834158658736
  0.6300527732066428  0.3699472267933572  0.4953834158658736
  0.7398944535867145  0.3699472267933572  0.4953834158658736
  0.0365870551484022  0.0731741102967973  0.4958140967368010
  0.0365870551484022  0.9634129448515978  0.4958140967368010
  0.9268258897032027  0.9634129448515978  0.4958140967368010
  0.8701318213112188  0.7402636426224447  0.5533927799936791
  0.7964367863724959  0.5928735727449777  0.5532162950585686
  0.8701318213112188  0.1298681786887812  0.5533927799936791
  0.7964367863724959  0.2035632136275041  0.5532162950585686
  0.2597363573775553  0.1298681786887812  0.5533927799936791
  0.3989795448857194  0.1994897724428597  0.3230018357146065
  0.5039363864298210  0.2519681932149140  0.6009864181697679
  0.5122882955414596  0.2561441477707262  0.3853303976115683
  0.9229231909986879  0.8458463819973829  0.3857088834885047
  0.8005102275571403  0.6010204551142806  0.3230018357146065
  0.8663434026459882  0.7326868052919764  0.3231413878927469
  0.7438558522292738  0.4877117044585404  0.3853303976115683
  0.9229231909986879  0.0770768090013121  0.3857088834885047
  0.8005102275571403  0.1994897724428597  0.3230018357146065
  0.8663434026459882  0.1336565973540118  0.3231413878927469
  0.7438558522292738  0.2561441477707262  0.3853303976115683
  0.1541536180026171  0.0770768090013121  0.3857088834885047
  0.2673131947080236  0.1336565973540118  0.3231413878927469
  0.9184975577845620  0.8369951155691169  0.6013428761658517
  0.7480318067850860  0.4960636135701790  0.6009864181697679
  0.9184975577845620  0.0815024422154380  0.6013428761658517
  0.7480318067850860  0.2519681932149140  0.6009864181697679
  0.1630048844308831  0.0815024422154380  0.6013428761658517
  0.3719830956384129  0.1859915478192065  0.4941951758102689
  0.4830213512725479  0.2415106756362775  0.4324594451249979
  0.4082171680984672  0.2041085840492300  0.4314561827078975
  0.3693860353792005  0.1846930176896038  0.3699400330800131
  0.4773445862494370  0.2386722931247220  0.5523395845684433
  0.5972589924349521  0.2986294962174796  0.4952260088987970
  0.5184002470011535  0.2592001235005768  0.4929912217928774
  0.7013705037825204  0.2986294962174796  0.4952260088987970
  0.7013705037825204  0.4027410075650479  0.4952260088987970
  0.9652942166315199  0.0347057833684801  0.4956783363259305
  0.0694115667369530  0.0347057833684801  0.4956783363259305
  0.9652942166315199  0.9305884332630470  0.4956783363259305
  0.9258573605415563  0.8517147210831126  0.4933814336727451
  0.8526394007956100  0.7052788015912128  0.4942850293975098
  0.8708343118799817  0.7416686237599706  0.4316197176268020
  0.9082338944716994  0.8164677889433918  0.4327777171131544
  0.8140084521807935  0.6280169043615871  0.4941951758102689
  0.7407998764994232  0.4815997529988465  0.4929912217928774
  0.7584893243637225  0.5169786487274521  0.4324594451249979
  0.7958914159507700  0.5917828319015328  0.4314561827078975
  0.8153069823103962  0.6306139646207995  0.3699400330800131
  0.8514935369379018  0.7029870738758106  0.3700191546093308
  0.9258573605415563  0.0741426394584437  0.4933814336727451
  0.8526394007956100  0.1473605992043900  0.4942850293975098
  0.8708343118799817  0.1291656881200183  0.4316197176268020
  0.9082338944716994  0.0917661055283006  0.4327777171131544
  0.8140084521807935  0.1859915478192065  0.4941951758102689
  0.7407998764994232  0.2592001235005768  0.4929912217928774
  0.7584893243637225  0.2415106756362775  0.4324594451249979
  0.7958914159507700  0.2041085840492300  0.4314561827078975
  0.8153069823103962  0.1846930176896038  0.3699400330800131
  0.8514935369379018  0.1485064630620982  0.3700191546093308
  0.1482852789168874  0.0741426394584437  0.4933814336727451
  0.2947211984087872  0.1473605992043900  0.4942850293975098
  0.2583313762400294  0.1291656881200183  0.4316197176268020
  0.1835322110566082  0.0917661055283006  0.4327777171131544
  0.2970129261241894  0.1485064630620982  0.3700191546093308
  0.9052507706413024  0.8105015412825978  0.5526443034532846
  0.7613277068752780  0.5226554137505630  0.5523395845684433
  0.9052507706413024  0.0947492293586976  0.5526443034532846
  0.7613277068752780  0.2386722931247220  0.5523395845684433
  0.1894984587174022  0.0947492293586976  0.5526443034532846
 
  0.00000000E+00  0.00000000E+00  0.00000000E+00
  0.00000000E+00  0.00000000E+00  0.00000000E+00
  0.00000000E+00  0.00000000E+00  0.00000000E+00
  0.00000000E+00  0.00000000E+00  0.00000000E+00
  0.00000000E+00  0.00000000E+00  0.00000000E+00
  0.00000000E+00  0.00000000E+00  0.00000000E+00
  0.00000000E+00  0.00000000E+00  0.00000000E+00
  0.00000000E+00  0.00000000E+00  0.00000000E+00
  0.00000000E+00  0.00000000E+00  0.00000000E+00
  0.00000000E+00  0.00000000E+00  0.00000000E+00
  0.00000000E+00  0.00000000E+00  0.00000000E+00
  0.00000000E+00  0.00000000E+00  0.00000000E+00
  0.00000000E+00  0.00000000E+00  0.00000000E+00
  0.00000000E+00  0.00000000E+00  0.00000000E+00
  0.00000000E+00  0.00000000E+00  0.00000000E+00
  0.00000000E+00  0.00000000E+00  0.00000000E+00
  0.00000000E+00  0.00000000E+00  0.00000000E+00
  0.00000000E+00  0.00000000E+00  0.00000000E+00
  0.00000000E+00  0.00000000E+00  0.00000000E+00
  0.00000000E+00  0.00000000E+00  0.00000000E+00
  0.00000000E+00  0.00000000E+00  0.00000000E+00
  0.00000000E+00  0.00000000E+00  0.00000000E+00
  0.00000000E+00  0.00000000E+00  0.00000000E+00
  0.00000000E+00  0.00000000E+00  0.00000000E+00
  0.00000000E+00  0.00000000E+00  0.00000000E+00
  0.00000000E+00  0.00000000E+00  0.00000000E+00
  0.00000000E+00  0.00000000E+00  0.00000000E+00
  0.00000000E+00  0.00000000E+00  0.00000000E+00
  0.00000000E+00  0.00000000E+00  0.00000000E+00
  0.00000000E+00  0.00000000E+00  0.00000000E+00
  0.00000000E+00  0.00000000E+00  0.00000000E+00
  0.00000000E+00  0.00000000E+00  0.00000000E+00
  0.00000000E+00  0.00000000E+00  0.00000000E+00
  0.00000000E+00  0.00000000E+00  0.00000000E+00
  0.00000000E+00  0.00000000E+00  0.00000000E+00
  0.00000000E+00  0.00000000E+00  0.00000000E+00
  0.00000000E+00  0.00000000E+00  0.00000000E+00
  0.00000000E+00  0.00000000E+00  0.00000000E+00
  0.00000000E+00  0.00000000E+00  0.00000000E+00
  0.00000000E+00  0.00000000E+00  0.00000000E+00
  0.00000000E+00  0.00000000E+00  0.00000000E+00
  0.00000000E+00  0.00000000E+00  0.00000000E+00
  0.00000000E+00  0.00000000E+00  0.00000000E+00
  0.00000000E+00  0.00000000E+00  0.00000000E+00
  0.00000000E+00  0.00000000E+00  0.00000000E+00
  0.00000000E+00  0.00000000E+00  0.00000000E+00
  0.00000000E+00  0.00000000E+00  0.00000000E+00
  0.00000000E+00  0.00000000E+00  0.00000000E+00
  0.00000000E+00  0.00000000E+00  0.00000000E+00
  0.00000000E+00  0.00000000E+00  0.00000000E+00
  0.00000000E+00  0.00000000E+00  0.00000000E+00
  0.00000000E+00  0.00000000E+00  0.00000000E+00
  0.00000000E+00  0.00000000E+00  0.00000000E+00
  0.00000000E+00  0.00000000E+00  0.00000000E+00
  0.00000000E+00  0.00000000E+00  0.00000000E+00
  0.00000000E+00  0.00000000E+00  0.00000000E+00
  0.00000000E+00  0.00000000E+00  0.00000000E+00
  0.00000000E+00  0.00000000E+00  0.00000000E+00
  0.00000000E+00  0.00000000E+00  0.00000000E+00
  0.00000000E+00  0.00000000E+00  0.00000000E+00
  0.00000000E+00  0.00000000E+00  0.00000000E+00
  0.00000000E+00  0.00000000E+00  0.00000000E+00
  0.00000000E+00  0.00000000E+00  0.00000000E+00
  0.00000000E+00  0.00000000E+00  0.00000000E+00
  0.00000000E+00  0.00000000E+00  0.00000000E+00
  0.00000000E+00  0.00000000E+00  0.00000000E+00
  0.00000000E+00  0.00000000E+00  0.00000000E+00
  0.00000000E+00  0.00000000E+00  0.00000000E+00
  0.00000000E+00  0.00000000E+00  0.00000000E+00
  0.00000000E+00  0.00000000E+00  0.00000000E+00
  0.00000000E+00  0.00000000E+00  0.00000000E+00
  0.00000000E+00  0.00000000E+00  0.00000000E+00
