Primitive Cell                          
   1.00000000000000     
    29.6793289685687469    0.0179265970943737    0.0000000000000000
   -14.8241665022058910   25.6958228001467326    0.0000000000000000
     0.0000000000000000    0.0000000000000000   20.0000000000000000
   C    H    O    N 
    60    39     6     9
Direct
  0.3536378541844414  0.7207033033238517  0.4910151336056785
  0.2994988297623564  0.6869844160771450  0.4905947356118148
  0.2793224122294546  0.6330251523510171  0.4909613170913687
  0.3130721287615543  0.6125811828479684  0.4905008223459646
  0.3669951322095386  0.6462985502583649  0.4909855818080899
  0.3873839940490029  0.7004702325343288  0.4906232416326901
  0.6455063928090823  0.2789741789867719  0.5116487741906823
  0.6997675852190497  0.3118324556687000  0.5120582876920636
  0.7213484708051183  0.3660909512064308  0.5116798658960420
  0.6884628152397028  0.3875261734216622  0.5123800381597761
  0.6342328594183968  0.3549117781659064  0.5119539108653939
  0.6128645297324482  0.3006186984197541  0.5123395214827227
  0.4293490354584932  0.8614060331081319  0.5270826461672442
  0.4544114592840529  0.8919952409057288  0.5830993895657031
  0.4761799865516423  0.9456850127220591  0.5793863528298218
  0.4778756382774603  0.9718104602955862  0.5196904520448626
  0.5069536031396282  0.0285971690096076  0.5106642915413389
  0.5517981926276363  0.0615067995627427  0.5481811733015434
  0.5778397869648515  0.1148752677626774  0.5390961291039602
  0.4053041009309695  0.8047748444213454  0.5314694992733209
  0.4317390667250933  0.5702692064023438  0.5271607866692491
  0.4371413849501735  0.5450779952892830  0.5831813086712003
  0.4692974923464774  0.5235402306157653  0.5796335106474260
  0.4938986285244980  0.5220093269266144  0.5200405373077217
  0.5218013478960515  0.4930815165602809  0.5111905001700379
  0.5098890832764909  0.4481438714591590  0.5485730098621318
  0.5374221810726283  0.4222682117200662  0.5396291886933824
  0.3991289831983735  0.5943355828502490  0.5313614740088468
  0.1386754720107248  0.5683316893611590  0.5268867527059626
  0.1080252951272698  0.5629101235158060  0.5828258678483920
  0.0543869877047385  0.5308397724780107  0.5791191383036178
  0.0284008963382192  0.5063005538645271  0.5194260468419074
  0.9716495616474461  0.4785057429015183  0.5103648689388578
  0.9386480563461035  0.4905328887210203  0.5476067680303842
  0.8853060525493106  0.4630350340129823  0.5386117412760925
  0.1952749248703327  0.6009098800637673  0.5312623783601111
  0.4511337506683759  0.9400059468446713  0.4637981465060790
  0.4271714732324909  0.8861210254100342  0.4681794374544666
  0.5599508619758211  0.1373030007206779  0.4915200698418047
  0.5167068338311935  0.1044987351968985  0.4519968030802772
  0.4904597443411660  0.0506504257717708  0.4602511031258203
  0.4455632479205249  0.0147643244184863  0.4161445430091746
  0.4496034884873055  0.9664086715393836  0.4000710507396548
  0.5851519049392735  0.1936330193697628  0.4829563245194279
  0.4888958479071377  0.5487987528534077  0.4641283951351340
  0.4588711786167892  0.5726765684576094  0.4684023563572453
  0.5779032774832586  0.4404283586492994  0.4923210047171835
  0.5883391083165179  0.4837782278542520  0.4529557974505138
  0.5605500031944572  0.5098649582596835  0.4610752477131328
  0.5695299221450441  0.5548439120597664  0.4170899420661982
  0.5171121073507763  0.5505509393809191  0.4005887963094921
  0.6091701719627025  0.4153601101715338  0.4837066195765445
  0.0602569663802370  0.5112956133513435  0.4636150147682017
  0.1140912915433532  0.5412809126427547  0.4680424312090423
  0.8630280200797102  0.4224900102436635  0.4913694678625191
  0.8959261374230110  0.4120242475528997  0.4520161420648776
  0.9497450663427358  0.4397775151151890  0.4601985210235711
  0.9857593448427124  0.4307671529672632  0.4162885091830546
  0.0339266942798702  0.4831751300098759  0.3999849093709287
  0.8067369055521567  0.3911957724540898  0.4828843550630921
  0.2970264145068953  0.5706170623671554  0.4876809536194600
  0.4293276865153359  0.7263713718526645  0.4879208282707026
  0.2735935645041891  0.7030665423036382  0.4878692132678353
  0.7057505934065276  0.4295864228398614  0.5166670967833369
  0.5708262928569852  0.2758672832039863  0.5166251782948450
  0.7245342606410006  0.2945084430217264  0.5161083547082868
  0.5669949352771866  0.0450477182367308  0.5844546631435676
  0.6122339156152492  0.1402970508472521  0.5685006606941769
  0.4556168031578736  0.8743498985501148  0.6304100260571914
  0.4162856460316107  0.7894430429920476  0.5751367887257501
  0.4780837649924692  0.4327357655994888  0.5845913658969693
  0.5284581298722344  0.3877873367073406  0.5688949009471926
  0.4180165136924643  0.5436085606502132  0.6303497722527496
  0.3725529224962969  0.5831491126062076  0.5747562398833068
  0.9550222360651972  0.5223950816983702  0.5835606754884566
  0.8598069284815395  0.4720646404512792  0.5678076241351206
  0.1255837002485478  0.5819612942201076  0.6300648458825506
  0.2105818253119338  0.6274289348487656  0.5747296903501180
  0.4065769774932022  0.8619168085486706  0.4251451306250615
  0.5034530790457552  0.1215518968202005  0.4136897692021080
  0.4083330730050108  0.0027868701547575  0.4418710517592714
  0.4455313128870131  0.0349897655905806  0.3701211835543603
  0.4168957503435209  0.9388381679233433  0.3688887300811601
  0.4854919009240675  0.9781780930927155  0.3710961268925246
  0.5669015354845044  0.2077368232926631  0.4465164800018471
  0.4553818285940991  0.5933924573074520  0.4253978150881110
  0.6187816415438689  0.4972257032053093  0.4148611675614475
  0.5944449256454831  0.5920504303856049  0.4430590441676259
  0.5900860545726374  0.5551202012412801  0.3712518138449568
  0.5221697553282993  0.5832458129663038  0.3693774192412107
  0.4932976078939362  0.5146379317083429  0.3715136512906767
  0.6415409398849548  0.4337845684030341  0.4473540383050292
  0.1383580828627231  0.5448285056326299  0.4251097245455142
  0.8789625231078730  0.3815680007994615  0.4139265436693762
  0.9979427595341619  0.4057395865433193  0.4422604423821141
  0.9655910983677813  0.4103114447296150  0.3703566705262773
  0.0615725503643461  0.4780665669636690  0.3688732211849270
  0.0219598400979493  0.5071037536450689  0.3708552880992784
  0.7927588249551931  0.3589107460731071  0.4463614401587961
  0.5216934944417559  0.9633121433290910  0.6797204209113517
  0.4776460564222589  0.0034551348957521  0.6589057036381263
  0.4416474810468145  0.4778181120738694  0.6798707907886623
  0.5257500695836868  0.5224793444991960  0.6592491644136160
  0.0365033485652759  0.5586316676997996  0.6793897318546840
  0.9965180884097151  0.4745030815895035  0.6584963810581428
  0.3727512346216741  0.7744066500590066  0.4875919297963449
  0.2256526013705624  0.5984460162341563  0.4876017354980391
  0.4015996036569476  0.6271773399952991  0.4876684003514313
  0.6260013998248297  0.2253059332312901  0.5160783029690279
  0.7749788008280873  0.4002091096347300  0.5161320333843165
  0.6000531823168842  0.3744087370141926  0.5165996361038125
  0.4937311120514138  0.9734766248374171  0.6439378336356683
  0.4796802677068825  0.5060687013922944  0.6441938896185349
  0.0264614924879467  0.5205428464027619  0.6435988499821832
 
  0.00000000E+00  0.00000000E+00  0.00000000E+00
  0.00000000E+00  0.00000000E+00  0.00000000E+00
  0.00000000E+00  0.00000000E+00  0.00000000E+00
  0.00000000E+00  0.00000000E+00  0.00000000E+00
  0.00000000E+00  0.00000000E+00  0.00000000E+00
  0.00000000E+00  0.00000000E+00  0.00000000E+00
  0.00000000E+00  0.00000000E+00  0.00000000E+00
  0.00000000E+00  0.00000000E+00  0.00000000E+00
  0.00000000E+00  0.00000000E+00  0.00000000E+00
  0.00000000E+00  0.00000000E+00  0.00000000E+00
  0.00000000E+00  0.00000000E+00  0.00000000E+00
  0.00000000E+00  0.00000000E+00  0.00000000E+00
  0.00000000E+00  0.00000000E+00  0.00000000E+00
  0.00000000E+00  0.00000000E+00  0.00000000E+00
  0.00000000E+00  0.00000000E+00  0.00000000E+00
  0.00000000E+00  0.00000000E+00  0.00000000E+00
  0.00000000E+00  0.00000000E+00  0.00000000E+00
  0.00000000E+00  0.00000000E+00  0.00000000E+00
  0.00000000E+00  0.00000000E+00  0.00000000E+00
  0.00000000E+00  0.00000000E+00  0.00000000E+00
  0.00000000E+00  0.00000000E+00  0.00000000E+00
  0.00000000E+00  0.00000000E+00  0.00000000E+00
  0.00000000E+00  0.00000000E+00  0.00000000E+00
  0.00000000E+00  0.00000000E+00  0.00000000E+00
  0.00000000E+00  0.00000000E+00  0.00000000E+00
  0.00000000E+00  0.00000000E+00  0.00000000E+00
  0.00000000E+00  0.00000000E+00  0.00000000E+00
  0.00000000E+00  0.00000000E+00  0.00000000E+00
  0.00000000E+00  0.00000000E+00  0.00000000E+00
  0.00000000E+00  0.00000000E+00  0.00000000E+00
  0.00000000E+00  0.00000000E+00  0.00000000E+00
  0.00000000E+00  0.00000000E+00  0.00000000E+00
  0.00000000E+00  0.00000000E+00  0.00000000E+00
  0.00000000E+00  0.00000000E+00  0.00000000E+00
  0.00000000E+00  0.00000000E+00  0.00000000E+00
  0.00000000E+00  0.00000000E+00  0.00000000E+00
  0.00000000E+00  0.00000000E+00  0.00000000E+00
  0.00000000E+00  0.00000000E+00  0.00000000E+00
  0.00000000E+00  0.00000000E+00  0.00000000E+00
  0.00000000E+00  0.00000000E+00  0.00000000E+00
  0.00000000E+00  0.00000000E+00  0.00000000E+00
  0.00000000E+00  0.00000000E+00  0.00000000E+00
  0.00000000E+00  0.00000000E+00  0.00000000E+00
  0.00000000E+00  0.00000000E+00  0.00000000E+00
  0.00000000E+00  0.00000000E+00  0.00000000E+00
  0.00000000E+00  0.00000000E+00  0.00000000E+00
  0.00000000E+00  0.00000000E+00  0.00000000E+00
  0.00000000E+00  0.00000000E+00  0.00000000E+00
  0.00000000E+00  0.00000000E+00  0.00000000E+00
  0.00000000E+00  0.00000000E+00  0.00000000E+00
  0.00000000E+00  0.00000000E+00  0.00000000E+00
  0.00000000E+00  0.00000000E+00  0.00000000E+00
  0.00000000E+00  0.00000000E+00  0.00000000E+00
  0.00000000E+00  0.00000000E+00  0.00000000E+00
  0.00000000E+00  0.00000000E+00  0.00000000E+00
  0.00000000E+00  0.00000000E+00  0.00000000E+00
  0.00000000E+00  0.00000000E+00  0.00000000E+00
  0.00000000E+00  0.00000000E+00  0.00000000E+00
  0.00000000E+00  0.00000000E+00  0.00000000E+00
  0.00000000E+00  0.00000000E+00  0.00000000E+00
  0.00000000E+00  0.00000000E+00  0.00000000E+00
  0.00000000E+00  0.00000000E+00  0.00000000E+00
  0.00000000E+00  0.00000000E+00  0.00000000E+00
  0.00000000E+00  0.00000000E+00  0.00000000E+00
  0.00000000E+00  0.00000000E+00  0.00000000E+00
  0.00000000E+00  0.00000000E+00  0.00000000E+00
  0.00000000E+00  0.00000000E+00  0.00000000E+00
  0.00000000E+00  0.00000000E+00  0.00000000E+00
  0.00000000E+00  0.00000000E+00  0.00000000E+00
  0.00000000E+00  0.00000000E+00  0.00000000E+00
  0.00000000E+00  0.00000000E+00  0.00000000E+00
  0.00000000E+00  0.00000000E+00  0.00000000E+00
  0.00000000E+00  0.00000000E+00  0.00000000E+00
  0.00000000E+00  0.00000000E+00  0.00000000E+00
  0.00000000E+00  0.00000000E+00  0.00000000E+00
  0.00000000E+00  0.00000000E+00  0.00000000E+00
  0.00000000E+00  0.00000000E+00  0.00000000E+00
  0.00000000E+00  0.00000000E+00  0.00000000E+00
  0.00000000E+00  0.00000000E+00  0.00000000E+00
  0.00000000E+00  0.00000000E+00  0.00000000E+00
  0.00000000E+00  0.00000000E+00  0.00000000E+00
  0.00000000E+00  0.00000000E+00  0.00000000E+00
  0.00000000E+00  0.00000000E+00  0.00000000E+00
  0.00000000E+00  0.00000000E+00  0.00000000E+00
  0.00000000E+00  0.00000000E+00  0.00000000E+00
  0.00000000E+00  0.00000000E+00  0.00000000E+00
  0.00000000E+00  0.00000000E+00  0.00000000E+00
  0.00000000E+00  0.00000000E+00  0.00000000E+00
  0.00000000E+00  0.00000000E+00  0.00000000E+00
  0.00000000E+00  0.00000000E+00  0.00000000E+00
  0.00000000E+00  0.00000000E+00  0.00000000E+00
  0.00000000E+00  0.00000000E+00  0.00000000E+00
  0.00000000E+00  0.00000000E+00  0.00000000E+00
  0.00000000E+00  0.00000000E+00  0.00000000E+00
  0.00000000E+00  0.00000000E+00  0.00000000E+00
  0.00000000E+00  0.00000000E+00  0.00000000E+00
  0.00000000E+00  0.00000000E+00  0.00000000E+00
  0.00000000E+00  0.00000000E+00  0.00000000E+00
  0.00000000E+00  0.00000000E+00  0.00000000E+00
  0.00000000E+00  0.00000000E+00  0.00000000E+00
  0.00000000E+00  0.00000000E+00  0.00000000E+00
  0.00000000E+00  0.00000000E+00  0.00000000E+00
  0.00000000E+00  0.00000000E+00  0.00000000E+00
  0.00000000E+00  0.00000000E+00  0.00000000E+00
  0.00000000E+00  0.00000000E+00  0.00000000E+00
  0.00000000E+00  0.00000000E+00  0.00000000E+00
  0.00000000E+00  0.00000000E+00  0.00000000E+00
  0.00000000E+00  0.00000000E+00  0.00000000E+00
  0.00000000E+00  0.00000000E+00  0.00000000E+00
  0.00000000E+00  0.00000000E+00  0.00000000E+00
  0.00000000E+00  0.00000000E+00  0.00000000E+00
  0.00000000E+00  0.00000000E+00  0.00000000E+00
  0.00000000E+00  0.00000000E+00  0.00000000E+00
  0.00000000E+00  0.00000000E+00  0.00000000E+00
