Primitive Cell                          
   1.00000000000000     
    21.9206046096849043   -0.0000000559279342    0.0000000000000000
   -10.9603022564074575   18.9838004862653840    0.0000000000000000
     0.0000000000000000    0.0000000000000000   20.0000000000000000
   H    N    C 
    30    12    36
Direct
  0.2556327776469800  0.0495561803677873  0.4571307176035617
  0.2783325460997901  0.2434639788762425  0.5319016278280628
  0.1632791536954059  0.1447443618738120  0.5224692311170216
  0.3502196954292742  0.0368904767458957  0.4309387705895489
  0.9504438196322127  0.2060765972791998  0.4571307176035617
  0.8886092277356994  0.3112508775147660  0.3939563999266724
  0.9631095232541114  0.3133292186833856  0.4309387705895489
  0.9121218313366484  0.3410144328301215  0.4772345374091245
  0.9651314327764666  0.7216674539002099  0.5319016278280628
  0.9613913445938564  0.6173935489972919  0.5398901089548787
  0.9814652081784132  0.8367208463045941  0.5224692311170216
  0.7939234027208073  0.7443672223530129  0.4571307176035617
  0.7956945195887783  0.2958427011117237  0.4520567837236911
  0.8991294660725586  0.5435758116192844  0.4914141935410399
  0.8801632981547129  0.5503952825704346  0.5747864828498450
  0.7565360211237575  0.0348685672235334  0.5319016278280628
  0.8552556381261880  0.0185347918215868  0.5224692311170216
  0.6887491224852340  0.5773583502209334  0.3939563999266724
  0.6866707813166073  0.6497803045707258  0.4309387705895489
  0.6589855671698785  0.5711073985065198  0.4772345374091245
  0.7041572988882763  0.4998518184770475  0.4520567837236911
  0.4226416497790666  0.1113907722643006  0.3939563999266724
  0.4288926014934802  0.0878781686633516  0.4772345374091245
  0.5001481815229525  0.2043054804112217  0.4520567837236911
  0.6560022044034426  0.0386086554061436  0.5398901089548787
  0.6444463455467258  0.1008705339274414  0.4914141935410399
  0.6702319844157287  0.1198367018452871  0.5747864828498450
  0.3826064510027081  0.3439977955965574  0.5398901089548787
  0.4564241883807156  0.3555536544532742  0.4914141935410399
  0.4496047174295654  0.3297680155842713  0.5747864828498450
  0.1403390572766128  0.0491132441256070  0.4787299103008635
  0.0264323157757218  0.9545583752648099  0.4812593780645926
  0.9281260594890881  0.9735676842242782  0.4812593780645926
  0.0454416247351901  0.0718739405109119  0.4812593780645926
  0.9508867558743930  0.0912258131509915  0.4787299103008635
  0.9087741868490085  0.8596609427233872  0.4787299103008635
  0.7668909626286009  0.4708531550527226  0.5043999432806530
  0.6463584755710130  0.3837155773575063  0.5007526503293533
  0.7373571017865004  0.3536415244289870  0.5007526503293533
  0.6162844226424937  0.2626428982134996  0.5007526503293533
  0.5291468449472774  0.2960378075758783  0.5043999432806530
  0.7039621924241217  0.2331090373713991  0.5043999432806530
  0.0681032687144238  0.0248983326222856  0.4815740520073604
  0.2901030183240891  0.1045229348690100  0.4710404002998700
  0.2592444864481394  0.1431206147260013  0.4948751023258922
  0.3026783244411249  0.2136390789279048  0.5136503089718190
  0.1830456644522300  0.1119295616623219  0.5000076168084320
  0.9567950639078617  0.9318967312855833  0.4815740520073604
  0.9751016673777144  0.0432049360921383  0.4815740520073604
  0.8954770651309900  0.1855800834550720  0.4710404002998700
  0.9092500911405139  0.3021344371782178  0.4407474306174421
  0.8838761282778620  0.7407555135518535  0.4948751023258922
  0.9109607544867799  0.6973216755588751  0.5136503089718190
  0.9051430145619435  0.5819718544945545  0.5298741493672523
  0.9288838972100919  0.8169543355477700  0.5000076168084320
  0.8006139600944877  0.5932738108395270  0.4850493745658753
  0.7725330479423818  0.6372060364937440  0.4656804542127730
  0.8144199165449280  0.7098969816759109  0.4710404002998700
  0.7926598507450393  0.1993860399055123  0.4850493745658753
  0.8646729885513622  0.2274669520576182  0.4656804542127730
  0.7635479789023805  0.2460879490113683  0.4791448207742590
  0.8711102904271684  0.6239851363194191  0.5093117286641728
  0.8568793852739987  0.1161238717221380  0.4948751023258922
  0.7863609210720952  0.0890392455132201  0.5136503089718190
  0.7528748458922436  0.1288897095728316  0.5093117286641728
  0.8880704383376781  0.0711161027899081  0.5000076168084320
  0.5997346300774566  0.3141816841260621  0.5004852577459360
  0.7144470540486125  0.4002653699225505  0.5004852577459360
  0.6858183158739379  0.2855529459513875  0.5004852577459360
  0.6978655628217822  0.6071156539623033  0.4407474306174421
  0.7539120509886317  0.5174600298910121  0.4791448207742590
  0.4067261891604730  0.2073401492549607  0.4850493745658753
  0.3627939635062560  0.1353270114486378  0.4656804542127730
  0.3928843460376967  0.0907499088594861  0.4407474306174421
  0.4825399701089879  0.2364520210976195  0.4791448207742590
  0.6768288399326110  0.0948569854380565  0.5298741493672523
  0.3760148636805809  0.2471251541077564  0.5093117286641728
  0.4180281455054455  0.3231711600673890  0.5298741493672523
 
  0.00000000E+00  0.00000000E+00  0.00000000E+00
  0.00000000E+00  0.00000000E+00  0.00000000E+00
  0.00000000E+00  0.00000000E+00  0.00000000E+00
  0.00000000E+00  0.00000000E+00  0.00000000E+00
  0.00000000E+00  0.00000000E+00  0.00000000E+00
  0.00000000E+00  0.00000000E+00  0.00000000E+00
  0.00000000E+00  0.00000000E+00  0.00000000E+00
  0.00000000E+00  0.00000000E+00  0.00000000E+00
  0.00000000E+00  0.00000000E+00  0.00000000E+00
  0.00000000E+00  0.00000000E+00  0.00000000E+00
  0.00000000E+00  0.00000000E+00  0.00000000E+00
  0.00000000E+00  0.00000000E+00  0.00000000E+00
  0.00000000E+00  0.00000000E+00  0.00000000E+00
  0.00000000E+00  0.00000000E+00  0.00000000E+00
  0.00000000E+00  0.00000000E+00  0.00000000E+00
  0.00000000E+00  0.00000000E+00  0.00000000E+00
  0.00000000E+00  0.00000000E+00  0.00000000E+00
  0.00000000E+00  0.00000000E+00  0.00000000E+00
  0.00000000E+00  0.00000000E+00  0.00000000E+00
  0.00000000E+00  0.00000000E+00  0.00000000E+00
  0.00000000E+00  0.00000000E+00  0.00000000E+00
  0.00000000E+00  0.00000000E+00  0.00000000E+00
  0.00000000E+00  0.00000000E+00  0.00000000E+00
  0.00000000E+00  0.00000000E+00  0.00000000E+00
  0.00000000E+00  0.00000000E+00  0.00000000E+00
  0.00000000E+00  0.00000000E+00  0.00000000E+00
  0.00000000E+00  0.00000000E+00  0.00000000E+00
  0.00000000E+00  0.00000000E+00  0.00000000E+00
  0.00000000E+00  0.00000000E+00  0.00000000E+00
  0.00000000E+00  0.00000000E+00  0.00000000E+00
  0.00000000E+00  0.00000000E+00  0.00000000E+00
  0.00000000E+00  0.00000000E+00  0.00000000E+00
  0.00000000E+00  0.00000000E+00  0.00000000E+00
  0.00000000E+00  0.00000000E+00  0.00000000E+00
  0.00000000E+00  0.00000000E+00  0.00000000E+00
  0.00000000E+00  0.00000000E+00  0.00000000E+00
  0.00000000E+00  0.00000000E+00  0.00000000E+00
  0.00000000E+00  0.00000000E+00  0.00000000E+00
  0.00000000E+00  0.00000000E+00  0.00000000E+00
  0.00000000E+00  0.00000000E+00  0.00000000E+00
  0.00000000E+00  0.00000000E+00  0.00000000E+00
  0.00000000E+00  0.00000000E+00  0.00000000E+00
  0.00000000E+00  0.00000000E+00  0.00000000E+00
  0.00000000E+00  0.00000000E+00  0.00000000E+00
  0.00000000E+00  0.00000000E+00  0.00000000E+00
  0.00000000E+00  0.00000000E+00  0.00000000E+00
  0.00000000E+00  0.00000000E+00  0.00000000E+00
  0.00000000E+00  0.00000000E+00  0.00000000E+00
  0.00000000E+00  0.00000000E+00  0.00000000E+00
  0.00000000E+00  0.00000000E+00  0.00000000E+00
  0.00000000E+00  0.00000000E+00  0.00000000E+00
  0.00000000E+00  0.00000000E+00  0.00000000E+00
  0.00000000E+00  0.00000000E+00  0.00000000E+00
  0.00000000E+00  0.00000000E+00  0.00000000E+00
  0.00000000E+00  0.00000000E+00  0.00000000E+00
  0.00000000E+00  0.00000000E+00  0.00000000E+00
  0.00000000E+00  0.00000000E+00  0.00000000E+00
  0.00000000E+00  0.00000000E+00  0.00000000E+00
  0.00000000E+00  0.00000000E+00  0.00000000E+00
  0.00000000E+00  0.00000000E+00  0.00000000E+00
  0.00000000E+00  0.00000000E+00  0.00000000E+00
  0.00000000E+00  0.00000000E+00  0.00000000E+00
  0.00000000E+00  0.00000000E+00  0.00000000E+00
  0.00000000E+00  0.00000000E+00  0.00000000E+00
  0.00000000E+00  0.00000000E+00  0.00000000E+00
  0.00000000E+00  0.00000000E+00  0.00000000E+00
  0.00000000E+00  0.00000000E+00  0.00000000E+00
  0.00000000E+00  0.00000000E+00  0.00000000E+00
  0.00000000E+00  0.00000000E+00  0.00000000E+00
  0.00000000E+00  0.00000000E+00  0.00000000E+00
  0.00000000E+00  0.00000000E+00  0.00000000E+00
  0.00000000E+00  0.00000000E+00  0.00000000E+00
  0.00000000E+00  0.00000000E+00  0.00000000E+00
  0.00000000E+00  0.00000000E+00  0.00000000E+00
  0.00000000E+00  0.00000000E+00  0.00000000E+00
  0.00000000E+00  0.00000000E+00  0.00000000E+00
  0.00000000E+00  0.00000000E+00  0.00000000E+00
  0.00000000E+00  0.00000000E+00  0.00000000E+00
