Primitive Cell                          
   1.00000000000000     
    25.4345305290494075   -0.0074511318830848    0.0000000000000000
    -0.0234126151725196   25.3849405926826321    0.0000000000000000
     0.0000000000000000    0.0000000000000000   20.0000000000000000
   C    O    N    H 
    58     2    12    38
Direct
  0.2164777068523236  0.9642233809010179  0.4630881987704214
  0.2709559614074308  0.9651867450199276  0.4670452194598482
  0.9769837201396427  0.7572056016708331  0.4635059719877930
  0.9768342935431491  0.7027029196809522  0.4685965101611060
  0.7169883592484041  0.9976013122196008  0.4052034465031369
  0.7716390788087963  0.9963158135857526  0.4093886384062344
  0.0017474759118414  0.2024171328352651  0.4099469055391438
  0.0022675360325550  0.2572621367144947  0.4065068276209658
  0.9751382560471598  0.5044122955481924  0.4377034514465663
  0.4696087745417259  0.9674957613210680  0.4333385445162676
  0.6857221933084929  0.9846569953064019  0.4608672879819338
  0.9911204862744398  0.2878970839294723  0.4633706494813481
  0.6286661745783988  0.9873258215063530  0.4555830091196640
  0.9926424992919536  0.3451588540561801  0.4586136554041786
  0.9802820345696119  0.5361142695802599  0.4949095667536128
  0.4377482316050703  0.9745144856812615  0.4899894670658043
  0.0900175433155113  0.1208167601228283  0.4866224499477880
  0.1281822532053454  0.0833017856984597  0.4961343473693702
  0.1027519427759103  0.0329143445373816  0.5007210011458056
  0.0400540040139319  0.0945713921969258  0.4842783138079270
  0.9906678580646187  0.1181421918326748  0.4753557238026147
  0.9420327750287569  0.0915844075543149  0.4721350160955282
  0.8813803893316958  0.0309823897301698  0.4713453322995633
  0.8541879209857584  0.0812816508665719  0.4640725370173371
  0.8921117452298972  0.1190587601490378  0.4641843736200357
  0.8549493832996404  0.9820930043189975  0.4750749891350665
  0.8791451867547551  0.9329779361148098  0.4852369499367697
  0.9418187856420062  0.8711681730835465  0.5017250192026594
  0.8917207076816638  0.8451059720519325  0.4995711829067275
  0.8537289769776066  0.8825891634275891  0.4890035887182407
  0.9911434171114593  0.8474735236516153  0.5119012385445103
  0.0398929644625952  0.8740896295051925  0.5152355942599058
  0.1004916727727618  0.9348298136525486  0.5137277384058834
  0.1277598674940350  0.8849035875664697  0.5234052461945211
  0.0900145813822704  0.8469508290553378  0.5237879695417220
  0.1268527610239545  0.9837047204021658  0.5101221087098651
  0.1853275578278115  0.9840170831884762  0.5155904349241922
  0.2961136689231694  0.9858891797701688  0.5240942005946536
  0.2650093610237434  0.0052951374872237  0.5767566880490165
  0.2103469147024128  0.0045317682471762  0.5724894485949932
  0.9911258525790814  0.7890110487591926  0.5184159054618505
  0.9907257384673258  0.6780621541107124  0.5292262319499130
  0.0047125574118780  0.7097654197439525  0.5841444270754010
  0.0049899962072288  0.7644716687716411  0.5788164012094654
  0.7965349872889576  0.9821501239392560  0.4694291123033096
  0.7651280683301778  0.9687759349867875  0.5249528342617324
  0.7106686669116229  0.9699911599191182  0.5209570612328847
  0.9903633021310014  0.1769072578465440  0.4704569569295671
  0.9791055772941206  0.2075486125815615  0.5273323345593681
  0.9793188668109707  0.2621920230874650  0.5240094107989961
  0.9911821166068790  0.6209555324621405  0.5359094582301864
  0.3531748415384115  0.9878522660471916  0.5296182154923912
  0.9813797412579248  0.4291279458360293  0.5010545127160384
  0.9857413581310510  0.4618227190467508  0.5595018741219704
  0.9949843351322514  0.4711972689353132  0.6769269066179504
  0.5444428678834754  0.9761055448639837  0.4967795225558618
  0.5115935700737637  0.9827586709751586  0.5546305949867829
  0.5020327588912536  0.9965231896328035  0.6713156316882518
  0.9908060802606968  0.4375384090480665  0.6191668445278466
  0.5357302261460717  0.9904103765392094  0.6139332088208036
  0.9759551983729509  0.4518864860069982  0.4410665897599557
  0.5220566268147593  0.9685661320213299  0.4369170830198570
  0.9795242689836243  0.5904133656967474  0.4862847620750230
  0.3835446828818476  0.9727739535885078  0.4814507463665052
  0.0497633640014001  0.0417100355488813  0.4930102633239386
  0.9346372659350095  0.0381409197853486  0.4762199852727704
  0.9321785765588970  0.9240431916123484  0.4929987253913382
  0.0471994862671181  0.9273629699410790  0.5091842474341846
  0.9853094552196922  0.5137627120246648  0.5560624001787957
  0.9811874889030605  0.3749326793940853  0.5089490696609431
  0.4597807171160895  0.9819721317624612  0.5509490597398141
  0.5984098637885182  0.9754990836037862  0.5052477143379548
  0.0112828482679319  0.2768874014186551  0.3592604491825142
  0.0102234735378062  0.1789016925858391  0.3655855264943710
  0.7956031762572522  0.0063783295173465  0.3659825656431224
  0.6979968762569442  0.0087364700631838  0.3582965293386593
  0.9665518351637061  0.7761291041561407  0.4163586571722959
  0.9663314424087446  0.6779955148038752  0.4260398997474013
  0.2952222067092976  0.9502905917872866  0.4262871045933423
  0.1971127069555152  0.9483436667573955  0.4187572480784425
  0.9701339826700917  0.5228003113398572  0.3887629301386255
  0.4514607038869656  0.9607044371261253  0.3846168141344748
  0.6122481141196801  0.0003931979705456  0.4072563775643303
  0.0044213468297656  0.3621491241706707  0.4100497905865836
  0.9709060879893983  0.2861680087173681  0.5679572341628543
  0.9703375564920407  0.1876995514658191  0.5744419286490725
  0.0953802831645945  0.1630065339692379  0.4812969105738887
  0.1703073253234280  0.0894075361675633  0.4996172239116845
  0.0217564726612309  0.0128815884645945  0.4936023244650372
  0.9602358680498924  0.9528221863024555  0.4923635346792068
  0.8871216337716064  0.1614111503938815  0.4599202885331124
  0.8119768492840507  0.0867213397957443  0.4601308630024761
  0.7843096622721859  0.9581680630231446  0.5718517788522846
  0.6862423999169067  0.9603932460874702  0.5640896996058373
  0.8117086775751261  0.8763874357305994  0.4842249487090129
  0.8860288361231383  0.8030300717859546  0.5055916771030269
  0.1699224470059804  0.8798369126352839  0.5288450274545582
  0.0953686202396042  0.8047280212133003  0.5288841877245858
  0.0157044915054740  0.7887541342953739  0.6217107891923845
  0.0153320654779989  0.6910435236821684  0.6314236506472213
  0.1865026638884402  0.0196546268212003  0.6135489540631411
  0.2841522368926377  0.0211501929953499  0.6213312836045333
  0.0023041547126681  0.6047746405862497  0.5851272502126506
  0.3695188515512200  0.0031940230354337  0.5769021467353213
  0.9979033354423663  0.4442716420346500  0.7195203662520413
  0.0301666904144895  0.4962595971215578  0.6736787855189235
  0.9601667701890264  0.4965320254053935  0.6816560766028701
  0.5288257561959000  0.0014787713374318  0.7136891493847770
  0.4766470502706213  0.0312639929659824  0.6657426807229498
  0.4770939751368317  0.9615545403821173  0.6782659543180003
 
  0.00000000E+00  0.00000000E+00  0.00000000E+00
  0.00000000E+00  0.00000000E+00  0.00000000E+00
  0.00000000E+00  0.00000000E+00  0.00000000E+00
  0.00000000E+00  0.00000000E+00  0.00000000E+00
  0.00000000E+00  0.00000000E+00  0.00000000E+00
  0.00000000E+00  0.00000000E+00  0.00000000E+00
  0.00000000E+00  0.00000000E+00  0.00000000E+00
  0.00000000E+00  0.00000000E+00  0.00000000E+00
  0.00000000E+00  0.00000000E+00  0.00000000E+00
  0.00000000E+00  0.00000000E+00  0.00000000E+00
  0.00000000E+00  0.00000000E+00  0.00000000E+00
  0.00000000E+00  0.00000000E+00  0.00000000E+00
  0.00000000E+00  0.00000000E+00  0.00000000E+00
  0.00000000E+00  0.00000000E+00  0.00000000E+00
  0.00000000E+00  0.00000000E+00  0.00000000E+00
  0.00000000E+00  0.00000000E+00  0.00000000E+00
  0.00000000E+00  0.00000000E+00  0.00000000E+00
  0.00000000E+00  0.00000000E+00  0.00000000E+00
  0.00000000E+00  0.00000000E+00  0.00000000E+00
  0.00000000E+00  0.00000000E+00  0.00000000E+00
  0.00000000E+00  0.00000000E+00  0.00000000E+00
  0.00000000E+00  0.00000000E+00  0.00000000E+00
  0.00000000E+00  0.00000000E+00  0.00000000E+00
  0.00000000E+00  0.00000000E+00  0.00000000E+00
  0.00000000E+00  0.00000000E+00  0.00000000E+00
  0.00000000E+00  0.00000000E+00  0.00000000E+00
  0.00000000E+00  0.00000000E+00  0.00000000E+00
  0.00000000E+00  0.00000000E+00  0.00000000E+00
  0.00000000E+00  0.00000000E+00  0.00000000E+00
  0.00000000E+00  0.00000000E+00  0.00000000E+00
  0.00000000E+00  0.00000000E+00  0.00000000E+00
  0.00000000E+00  0.00000000E+00  0.00000000E+00
  0.00000000E+00  0.00000000E+00  0.00000000E+00
  0.00000000E+00  0.00000000E+00  0.00000000E+00
  0.00000000E+00  0.00000000E+00  0.00000000E+00
  0.00000000E+00  0.00000000E+00  0.00000000E+00
  0.00000000E+00  0.00000000E+00  0.00000000E+00
  0.00000000E+00  0.00000000E+00  0.00000000E+00
  0.00000000E+00  0.00000000E+00  0.00000000E+00
  0.00000000E+00  0.00000000E+00  0.00000000E+00
  0.00000000E+00  0.00000000E+00  0.00000000E+00
  0.00000000E+00  0.00000000E+00  0.00000000E+00
  0.00000000E+00  0.00000000E+00  0.00000000E+00
  0.00000000E+00  0.00000000E+00  0.00000000E+00
  0.00000000E+00  0.00000000E+00  0.00000000E+00
  0.00000000E+00  0.00000000E+00  0.00000000E+00
  0.00000000E+00  0.00000000E+00  0.00000000E+00
  0.00000000E+00  0.00000000E+00  0.00000000E+00
  0.00000000E+00  0.00000000E+00  0.00000000E+00
  0.00000000E+00  0.00000000E+00  0.00000000E+00
  0.00000000E+00  0.00000000E+00  0.00000000E+00
  0.00000000E+00  0.00000000E+00  0.00000000E+00
  0.00000000E+00  0.00000000E+00  0.00000000E+00
  0.00000000E+00  0.00000000E+00  0.00000000E+00
  0.00000000E+00  0.00000000E+00  0.00000000E+00
  0.00000000E+00  0.00000000E+00  0.00000000E+00
  0.00000000E+00  0.00000000E+00  0.00000000E+00
  0.00000000E+00  0.00000000E+00  0.00000000E+00
  0.00000000E+00  0.00000000E+00  0.00000000E+00
  0.00000000E+00  0.00000000E+00  0.00000000E+00
  0.00000000E+00  0.00000000E+00  0.00000000E+00
  0.00000000E+00  0.00000000E+00  0.00000000E+00
  0.00000000E+00  0.00000000E+00  0.00000000E+00
  0.00000000E+00  0.00000000E+00  0.00000000E+00
  0.00000000E+00  0.00000000E+00  0.00000000E+00
  0.00000000E+00  0.00000000E+00  0.00000000E+00
  0.00000000E+00  0.00000000E+00  0.00000000E+00
  0.00000000E+00  0.00000000E+00  0.00000000E+00
  0.00000000E+00  0.00000000E+00  0.00000000E+00
  0.00000000E+00  0.00000000E+00  0.00000000E+00
  0.00000000E+00  0.00000000E+00  0.00000000E+00
  0.00000000E+00  0.00000000E+00  0.00000000E+00
  0.00000000E+00  0.00000000E+00  0.00000000E+00
  0.00000000E+00  0.00000000E+00  0.00000000E+00
  0.00000000E+00  0.00000000E+00  0.00000000E+00
  0.00000000E+00  0.00000000E+00  0.00000000E+00
  0.00000000E+00  0.00000000E+00  0.00000000E+00
  0.00000000E+00  0.00000000E+00  0.00000000E+00
  0.00000000E+00  0.00000000E+00  0.00000000E+00
  0.00000000E+00  0.00000000E+00  0.00000000E+00
  0.00000000E+00  0.00000000E+00  0.00000000E+00
  0.00000000E+00  0.00000000E+00  0.00000000E+00
  0.00000000E+00  0.00000000E+00  0.00000000E+00
  0.00000000E+00  0.00000000E+00  0.00000000E+00
  0.00000000E+00  0.00000000E+00  0.00000000E+00
  0.00000000E+00  0.00000000E+00  0.00000000E+00
  0.00000000E+00  0.00000000E+00  0.00000000E+00
  0.00000000E+00  0.00000000E+00  0.00000000E+00
  0.00000000E+00  0.00000000E+00  0.00000000E+00
  0.00000000E+00  0.00000000E+00  0.00000000E+00
  0.00000000E+00  0.00000000E+00  0.00000000E+00
  0.00000000E+00  0.00000000E+00  0.00000000E+00
  0.00000000E+00  0.00000000E+00  0.00000000E+00
  0.00000000E+00  0.00000000E+00  0.00000000E+00
  0.00000000E+00  0.00000000E+00  0.00000000E+00
  0.00000000E+00  0.00000000E+00  0.00000000E+00
  0.00000000E+00  0.00000000E+00  0.00000000E+00
  0.00000000E+00  0.00000000E+00  0.00000000E+00
  0.00000000E+00  0.00000000E+00  0.00000000E+00
  0.00000000E+00  0.00000000E+00  0.00000000E+00
  0.00000000E+00  0.00000000E+00  0.00000000E+00
  0.00000000E+00  0.00000000E+00  0.00000000E+00
  0.00000000E+00  0.00000000E+00  0.00000000E+00
  0.00000000E+00  0.00000000E+00  0.00000000E+00
  0.00000000E+00  0.00000000E+00  0.00000000E+00
  0.00000000E+00  0.00000000E+00  0.00000000E+00
  0.00000000E+00  0.00000000E+00  0.00000000E+00
  0.00000000E+00  0.00000000E+00  0.00000000E+00
  0.00000000E+00  0.00000000E+00  0.00000000E+00
  0.00000000E+00  0.00000000E+00  0.00000000E+00
