Primitive Cell                          
   1.00000000000000     
    14.2762212866876741    0.0057718568162939    0.0000000000000000
     7.1431092169637438   12.3606843764952234    0.0000000000000000
     0.0000000000000000    0.0000000000000000   20.0000000000000000
   N    C    H 
    12    21    12
Direct
  0.4994916112210603  0.0820076513657853  0.4577840953970664
  0.3047028935533902  0.3047028935533902  0.5132535816526413
  0.4719072723985960  0.3046095606844830  0.5132346825586822
  0.3046095606844830  0.4719072723985960  0.5132346825586822
  0.7492882886055483  0.7492882886055483  0.5100996140614313
  0.5819608120353976  0.7494101705932650  0.5107741943954949
  0.7494101705932650  0.5819608120353976  0.5107741943954949
  0.4995995704433795  0.4995995704433795  0.4578463601156386
  0.5534916868435644  0.5534916868435644  0.4564855066127933
  0.0820076513657853  0.4994916112210603  0.4577840953970664
  0.9741875965052600  0.5532134480861473  0.4563506834226132
  0.5532134480861473  0.9741875965052600  0.4563506834226132
  0.4131762172651605  0.2549398798108058  0.5129656657548409
  0.4994034227277027  0.0822505576648780  0.5794728476619966
  0.4735972530662167  0.1339718246688335  0.5166569495267197
  0.4683795619980700  0.1443042981521074  0.6439387163359029
  0.2549398798108058  0.4131762172651605  0.5129656657548409
  0.4131015237453894  0.4131015237453894  0.5129370620567428
  0.7989578799988166  0.6408155948446748  0.5102452753411413
  0.6408155948446748  0.7989578799988166  0.5102452753411413
  0.6409233303489259  0.6409233303489259  0.5105750145108914
  0.5805532468788925  0.5805532468788925  0.5146820446703444
  0.5554100788341145  0.5554100788341145  0.5772529926413696
  0.4993303137861744  0.4993303137861744  0.5795432162307179
  0.4735572042825993  0.4735572042825993  0.5166709762930140
  0.4683050902648063  0.4683050902648063  0.6439878579121654
  0.9198227103442349  0.5804504415619434  0.5144796500992044
  0.9700036706324724  0.5554694097961885  0.5771052425132126
  0.0822505576648780  0.4994034227277027  0.5794728476619966
  0.1339718246688335  0.4735972530662167  0.5166569495267197
  0.1443042981521074  0.4683795619980700  0.6439387163359029
  0.5804504415619434  0.9198227103442349  0.5144796500992044
  0.5554694097961885  0.9700036706324724  0.5771052425132126
  0.4957268312503942  0.0896559685672855  0.6871666958690170
  0.3800428176415380  0.1968911107134019  0.6473041144847329
  0.5041001490105117  0.1968521000235839  0.6472994471381384
  0.5793910058494447  0.5793910058494447  0.6230848699851705
  0.4955839321741351  0.4955839321741351  0.6872444490353971
  0.5041178442487677  0.3799774748986735  0.6473348032442630
  0.3799774748986735  0.5041178442487677  0.6473348032442630
  0.9219454443212456  0.5795137482921362  0.6229126960228015
  0.0896559685672855  0.4957268312503942  0.6871666958690170
  0.1968521000235839  0.5041001490105117  0.6472994471381384
  0.1968911107134019  0.3800428176415380  0.6473041144847329
  0.5795137482921362  0.9219454443212456  0.6229126960228015
 
  0.00000000E+00  0.00000000E+00  0.00000000E+00
  0.00000000E+00  0.00000000E+00  0.00000000E+00
  0.00000000E+00  0.00000000E+00  0.00000000E+00
  0.00000000E+00  0.00000000E+00  0.00000000E+00
  0.00000000E+00  0.00000000E+00  0.00000000E+00
  0.00000000E+00  0.00000000E+00  0.00000000E+00
  0.00000000E+00  0.00000000E+00  0.00000000E+00
  0.00000000E+00  0.00000000E+00  0.00000000E+00
  0.00000000E+00  0.00000000E+00  0.00000000E+00
  0.00000000E+00  0.00000000E+00  0.00000000E+00
  0.00000000E+00  0.00000000E+00  0.00000000E+00
  0.00000000E+00  0.00000000E+00  0.00000000E+00
  0.00000000E+00  0.00000000E+00  0.00000000E+00
  0.00000000E+00  0.00000000E+00  0.00000000E+00
  0.00000000E+00  0.00000000E+00  0.00000000E+00
  0.00000000E+00  0.00000000E+00  0.00000000E+00
  0.00000000E+00  0.00000000E+00  0.00000000E+00
  0.00000000E+00  0.00000000E+00  0.00000000E+00
  0.00000000E+00  0.00000000E+00  0.00000000E+00
  0.00000000E+00  0.00000000E+00  0.00000000E+00
  0.00000000E+00  0.00000000E+00  0.00000000E+00
  0.00000000E+00  0.00000000E+00  0.00000000E+00
  0.00000000E+00  0.00000000E+00  0.00000000E+00
  0.00000000E+00  0.00000000E+00  0.00000000E+00
  0.00000000E+00  0.00000000E+00  0.00000000E+00
  0.00000000E+00  0.00000000E+00  0.00000000E+00
  0.00000000E+00  0.00000000E+00  0.00000000E+00
  0.00000000E+00  0.00000000E+00  0.00000000E+00
  0.00000000E+00  0.00000000E+00  0.00000000E+00
  0.00000000E+00  0.00000000E+00  0.00000000E+00
  0.00000000E+00  0.00000000E+00  0.00000000E+00
  0.00000000E+00  0.00000000E+00  0.00000000E+00
  0.00000000E+00  0.00000000E+00  0.00000000E+00
  0.00000000E+00  0.00000000E+00  0.00000000E+00
  0.00000000E+00  0.00000000E+00  0.00000000E+00
  0.00000000E+00  0.00000000E+00  0.00000000E+00
  0.00000000E+00  0.00000000E+00  0.00000000E+00
  0.00000000E+00  0.00000000E+00  0.00000000E+00
  0.00000000E+00  0.00000000E+00  0.00000000E+00
  0.00000000E+00  0.00000000E+00  0.00000000E+00
  0.00000000E+00  0.00000000E+00  0.00000000E+00
  0.00000000E+00  0.00000000E+00  0.00000000E+00
  0.00000000E+00  0.00000000E+00  0.00000000E+00
  0.00000000E+00  0.00000000E+00  0.00000000E+00
  0.00000000E+00  0.00000000E+00  0.00000000E+00
