Primitive Cell                          
   1.00000000000000     
    21.6813955503894498    0.0668472491949503    0.0000000000000000
   -10.7838508862580706   18.6784218973480236    0.0000000000000000
     0.0000000000000000    0.0000000000000000   20.0000000000000000
   H    N    C 
    18    24    30
Direct
  0.6423572846366739  0.1732960586232934  0.5272017608488753
  0.8250560746122417  0.4659558982511669  0.5173610025784541
  0.5332274753376254  0.3583703908902507  0.5178417659622099
  0.3521544465550406  0.8223156154709699  0.4674987496690548
  0.1740377973466494  0.5285413573263966  0.4863851437330666
  0.4675217920523096  0.6430704927465527  0.4852643896321780
  0.3606417592067785  0.5103561369925416  0.4437605226404528
  0.3490729736882088  0.5056150318674142  0.5320564372291443
  0.1465793014639587  0.6300404439472516  0.4306467030050314
  0.1557336660231101  0.6520703387350935  0.5171223417159823
  0.4795990133000672  0.8534807929096644  0.4173743742083715
  0.4923913067613910  0.8381351780359552  0.5023580646850831
  0.6410753628284667  0.4886265264875718  0.5621124042630825
  0.6546591063163376  0.4955531179799806  0.4740284244950104
  0.8494908852350989  0.3630993101774820  0.5711912277285620
  0.8400819441492473  0.3403973733705143  0.4848249401177043
  0.5162992131971649  0.1449140552160486  0.5794201075787058
  0.5028513880992946  0.1603011340566525  0.4946173938229492
  0.5929427406861691  0.2895296115429531  0.5105594815170917
  0.7087446096829524  0.3000984601735226  0.5111359207775763
  0.6977832349322028  0.4056077252080712  0.5068552525578056
  0.6075045127532164  0.1902448869375846  0.5160074594047117
  0.8073602977637577  0.4133716660843376  0.5090145524224781
  0.5851010247923440  0.3919959450394117  0.5067685520616507
  0.4049844503813276  0.7092917636093006  0.4887653370608760
  0.2879746051010841  0.6956041617678750  0.4866593105914276
  0.3019366942079529  0.5919969801040637  0.4948935481611372
  0.3876970663946651  0.8066341528258718  0.4799253758624431
  0.1910788581498366  0.5813804168367085  0.4916358805425887
  0.4158380549196252  0.6087494349707967  0.4964112719183262
  0.5341987487229005  0.5031523654147136  0.5636798618554764
  0.4399899575310400  0.5496999717357198  0.6698171000053961
  0.9720842966565755  0.4662205876175918  0.5638758464814018
  0.1198638173336235  0.5655171615738510  0.6609853826131129
  0.4934370265574231  0.0213204211252389  0.5632347712916612
  0.4409803885301073  0.8654087917810926  0.6500971628776497
  0.4699933096219553  0.4998733139892977  0.4411182159791380
  0.5661270355889982  0.4549435982286028  0.3352118285922643
  0.0252117640083327  0.5251435618723548  0.4376850698474328
  0.8777229482903408  0.4255696287771755  0.3403861790588749
  0.5003300870177583  0.9763044703929609  0.4332883546360335
  0.5499806620677248  0.1312544233110557  0.3459899008516345
  0.6273000208357402  0.3617063589967699  0.5077122505968177
  0.6368616318415405  0.2626252647715361  0.5120738962634519
  0.7352825134542584  0.3709218515974158  0.5086601145974399
  0.3721606725154416  0.6372873138989448  0.4936038056713414
  0.3597619738177542  0.7345341553594977  0.4856403281109039
  0.2629497826891907  0.6250936880294944  0.4913331617277876
  0.4478320951872163  0.5159954040609946  0.4974401779034068
  0.4810299024365889  0.5180762513331487  0.5590470352161958
  0.4587013788830916  0.5357033357465966  0.6201757899803866
  0.3880541258670647  0.5321294914642678  0.4916566109115834
  0.0669322031927351  0.5492800163928635  0.4916679311734811
  0.0396868410342890  0.5188328406996305  0.5551843270883126
  0.0834855300247526  0.5439412417358298  0.6138083249981392
  0.1423223697734457  0.6082896371729234  0.4813382162081083
  0.4810507775714257  0.9305593289938940  0.4845015794515959
  0.4772926547998182  0.9537267062648951  0.5499114659900286
  0.4569164357500668  0.9054420398973235  0.6054972981246181
  0.4629557645263276  0.8550258677438478  0.4691359590170379
  0.5233450761945591  0.4852139871018224  0.4457086129923908
  0.5560596725771632  0.4866116962312503  0.5074496020966848
  0.5464430609857160  0.4683603127844194  0.3845852401846770
  0.6145888227666347  0.4686967547110044  0.5135118370810758
  0.9576844850902901  0.4725379532813818  0.4463372616523245
  0.9303200864540813  0.4424184892906098  0.5099319902067094
  0.9139589654801057  0.4472269389631975  0.3876543510017001
  0.8544674380955328  0.3846227675945997  0.5202855795335779
  0.5160415718210842  0.0437418672475474  0.4465601436930768
  0.5128968019915021  0.0670723032094145  0.5120451626405753
  0.5352637822814401  0.0916637528085076  0.3908081241002321
  0.5321505795595556  0.1429051286114316  0.5274534667442481
 
  0.00000000E+00  0.00000000E+00  0.00000000E+00
  0.00000000E+00  0.00000000E+00  0.00000000E+00
  0.00000000E+00  0.00000000E+00  0.00000000E+00
  0.00000000E+00  0.00000000E+00  0.00000000E+00
  0.00000000E+00  0.00000000E+00  0.00000000E+00
  0.00000000E+00  0.00000000E+00  0.00000000E+00
  0.00000000E+00  0.00000000E+00  0.00000000E+00
  0.00000000E+00  0.00000000E+00  0.00000000E+00
  0.00000000E+00  0.00000000E+00  0.00000000E+00
  0.00000000E+00  0.00000000E+00  0.00000000E+00
  0.00000000E+00  0.00000000E+00  0.00000000E+00
  0.00000000E+00  0.00000000E+00  0.00000000E+00
  0.00000000E+00  0.00000000E+00  0.00000000E+00
  0.00000000E+00  0.00000000E+00  0.00000000E+00
  0.00000000E+00  0.00000000E+00  0.00000000E+00
  0.00000000E+00  0.00000000E+00  0.00000000E+00
  0.00000000E+00  0.00000000E+00  0.00000000E+00
  0.00000000E+00  0.00000000E+00  0.00000000E+00
  0.00000000E+00  0.00000000E+00  0.00000000E+00
  0.00000000E+00  0.00000000E+00  0.00000000E+00
  0.00000000E+00  0.00000000E+00  0.00000000E+00
  0.00000000E+00  0.00000000E+00  0.00000000E+00
  0.00000000E+00  0.00000000E+00  0.00000000E+00
  0.00000000E+00  0.00000000E+00  0.00000000E+00
  0.00000000E+00  0.00000000E+00  0.00000000E+00
  0.00000000E+00  0.00000000E+00  0.00000000E+00
  0.00000000E+00  0.00000000E+00  0.00000000E+00
  0.00000000E+00  0.00000000E+00  0.00000000E+00
  0.00000000E+00  0.00000000E+00  0.00000000E+00
  0.00000000E+00  0.00000000E+00  0.00000000E+00
  0.00000000E+00  0.00000000E+00  0.00000000E+00
  0.00000000E+00  0.00000000E+00  0.00000000E+00
  0.00000000E+00  0.00000000E+00  0.00000000E+00
  0.00000000E+00  0.00000000E+00  0.00000000E+00
  0.00000000E+00  0.00000000E+00  0.00000000E+00
  0.00000000E+00  0.00000000E+00  0.00000000E+00
  0.00000000E+00  0.00000000E+00  0.00000000E+00
  0.00000000E+00  0.00000000E+00  0.00000000E+00
  0.00000000E+00  0.00000000E+00  0.00000000E+00
  0.00000000E+00  0.00000000E+00  0.00000000E+00
  0.00000000E+00  0.00000000E+00  0.00000000E+00
  0.00000000E+00  0.00000000E+00  0.00000000E+00
  0.00000000E+00  0.00000000E+00  0.00000000E+00
  0.00000000E+00  0.00000000E+00  0.00000000E+00
  0.00000000E+00  0.00000000E+00  0.00000000E+00
  0.00000000E+00  0.00000000E+00  0.00000000E+00
  0.00000000E+00  0.00000000E+00  0.00000000E+00
  0.00000000E+00  0.00000000E+00  0.00000000E+00
  0.00000000E+00  0.00000000E+00  0.00000000E+00
  0.00000000E+00  0.00000000E+00  0.00000000E+00
  0.00000000E+00  0.00000000E+00  0.00000000E+00
  0.00000000E+00  0.00000000E+00  0.00000000E+00
  0.00000000E+00  0.00000000E+00  0.00000000E+00
  0.00000000E+00  0.00000000E+00  0.00000000E+00
  0.00000000E+00  0.00000000E+00  0.00000000E+00
  0.00000000E+00  0.00000000E+00  0.00000000E+00
  0.00000000E+00  0.00000000E+00  0.00000000E+00
  0.00000000E+00  0.00000000E+00  0.00000000E+00
  0.00000000E+00  0.00000000E+00  0.00000000E+00
  0.00000000E+00  0.00000000E+00  0.00000000E+00
  0.00000000E+00  0.00000000E+00  0.00000000E+00
  0.00000000E+00  0.00000000E+00  0.00000000E+00
  0.00000000E+00  0.00000000E+00  0.00000000E+00
  0.00000000E+00  0.00000000E+00  0.00000000E+00
  0.00000000E+00  0.00000000E+00  0.00000000E+00
  0.00000000E+00  0.00000000E+00  0.00000000E+00
  0.00000000E+00  0.00000000E+00  0.00000000E+00
  0.00000000E+00  0.00000000E+00  0.00000000E+00
  0.00000000E+00  0.00000000E+00  0.00000000E+00
  0.00000000E+00  0.00000000E+00  0.00000000E+00
  0.00000000E+00  0.00000000E+00  0.00000000E+00
  0.00000000E+00  0.00000000E+00  0.00000000E+00
