Primitive Cell                          
   1.00000000000000     
    22.3946003211239741    0.0005497888875862    0.0000000000000000
   -11.1968242943610630   19.4054138556895630    0.0000000000000000
     0.0000000000000000    0.0000000000000000   20.0000000000000000
   H    C 
    42    54
Direct
  0.4575901331689423  0.0562577440696757  0.5811814616475814
  0.6580978131372390  0.0826856915018652  0.4010586621940391
  0.6215577710604236  0.0113452632951976  0.4569857669031165
  0.5716033909774580  0.0144822068842174  0.3906261473703125
  0.5204737189224034  0.1841377579686494  0.5816796351477436
  0.6659247516365383  0.1846321385072542  0.4405831330679106
  0.5449273447861316  0.2790014954986546  0.5112304030876089
  0.7369375036009913  0.2786384524318848  0.5113997817514289
  0.7372484304182976  0.4709144434957864  0.5112311949013559
  0.2758652757413671  0.5483300136429037  0.5138741337485371
  0.4679264322503442  0.7405644852911664  0.5138458890434165
  0.2755797356651115  0.7403507966945213  0.5137577849555583
  0.6669362768040656  0.4954317219741853  0.5815930143775461
  0.3497155105614809  0.5282292369897661  0.5879525938145989
  0.6019358508100723  0.5583608990551667  0.5812306660654087
  0.3942246930292583  0.3990310362760070  0.5748182484187083
  0.4469847653067163  0.4555508978456686  0.6379028285911019
  0.3599340318191011  0.4364214197364333  0.6303798411405666
  0.8318871052025827  0.3491861533915923  0.5818670268811630
  0.1815633638214891  0.6663723146467220  0.5878946092260975
  0.9598073069780284  0.4142691045060616  0.5814308313912591
  0.0080772776300293  0.6220925602130905  0.5747108910265126
  0.0112942361509596  0.5688298408040993  0.6375993501281130
  0.0794443550665918  0.6557650605320404  0.6306309923387730
  0.4880965686586123  0.8345344475422323  0.5878167620421308
  0.6174007429386918  0.0076865563821542  0.5743527544144769
  0.5611126914585398  0.0049488222487426  0.6372364335788347
  0.5796057864051889  0.9365406946263022  0.6304825742611015
  0.5519150108505428  0.6019789548496632  0.4397660024588390
  0.4892635953230666  0.6673474099311960  0.4397604606199863
  0.5217564463856661  0.3500249975960017  0.4406807505599417
  0.4273766241655466  0.3576738072852663  0.4016147350802299
  0.3930068874954173  0.3950525421437305  0.4570733085334524
  0.4461893237590644  0.4442331751400843  0.3904728743776289
  0.0534063500308335  0.4643615706927093  0.4395419985352476
  0.1814565958434287  0.5271535632302360  0.4395348300129953
  0.8312683569864490  0.4937587156829863  0.4404383525898936
  0.9332469325348711  0.5878601906310621  0.4008575807660364
  0.0045779065031866  0.6227759412357727  0.4568502216958947
  0.0015544419565643  0.5696537232510437  0.3906083528258648
  0.4139626287472140  0.9627216161613532  0.4397296939081343
  0.3487111729930206  0.8347369842018466  0.4397374615004068
  0.5264152719602464  0.0479210391308413  0.5116464273229653
  0.5034804371024606  0.0847721375165733  0.5501968313449055
  0.5859368117596162  0.0843944736332602  0.4716604561064912
  0.6108585198442142  0.0465903666202649  0.4277982087672925
  0.5385648406955070  0.1565904362072956  0.5502184563539245
  0.5982325285705983  0.1937355245819390  0.5113743507208852
  0.6206740342801140  0.1564581541887335  0.4725049438481221
  0.6365347529927234  0.2700678797049179  0.5112659573038130
  0.7088681112841115  0.3068266476599604  0.5113101295711715
  0.7458557762169988  0.3791299894220828  0.5112962474829175
  0.7090626205261543  0.4146767862917642  0.5112221617833796
  0.6367265780209621  0.3793634584383270  0.5112188971764056
  0.6011865909349865  0.3070564355527665  0.5112104762779524
  0.3760832391030604  0.7491466542106338  0.5138384608268751
  0.3037624974446800  0.7122622986206792  0.5138367224239744
  0.2670155026083521  0.6399706709036366  0.5138121611872180
  0.3039408734412277  0.6045722082505449  0.5138933794870155
  0.3762610458619449  0.6400988988044887  0.5138659047742919
  0.4116556080941507  0.7123912334241780  0.5138878715303861
  0.5246783818481902  0.4895880707685052  0.5117540840494996
  0.5845016293398544  0.5124713545459443  0.5502463666444655
  0.6212440458677762  0.4773584137631914  0.5501980904032138
  0.4863062453633162  0.5280060753881770  0.5132696916039663
  0.4145108094412535  0.6019987692927984  0.5136208462330316
  0.3936767393976766  0.5439248436167148  0.5545203741931246
  0.4286098184130367  0.5067618595518368  0.5555279486913420
  0.4059673327786726  0.4463290526423762  0.6020600863364010
  0.9681005993489507  0.4912604026554845  0.5117347316639140
  0.9312696239520903  0.4315635488825151  0.5503752366019938
  0.8594207684953901  0.3947819241774582  0.5503728715676957
  0.0448951738465695  0.5297388830857983  0.5132222795041130
  0.1906740071721202  0.6016996027436505  0.5135248069599285
  0.1533538615603618  0.6224263091121429  0.5544654858093310
  0.0812584265693062  0.5874106599627140  0.5554933237199222
  0.0433707606208955  0.6099818141508706  0.6020126601920879
  0.4880644972842632  0.9711674972395627  0.5131449765970686
  0.4141656100863287  0.8254507504277342  0.5135659567669038
  0.4722974700975726  0.8627240654597657  0.5544082389168565
  0.5094330359585086  0.9347876904673456  0.5553523386297172
  0.5699967377564548  0.9726382324437779  0.6017634555696389
  0.5986707175902026  0.4176833109168356  0.5113759621470635
  0.5388964906323253  0.3952806659001027  0.4725891174653825
  0.5015733916249303  0.4300557101818541  0.4717967435173307
  0.5074761000556833  0.5860445895662352  0.4725168598343785
  0.4724971104820241  0.6229146946579291  0.4726513679725599
  0.4388295861524369  0.4051865961065744  0.4279697669671236
  0.8222281836497984  0.4171858832646933  0.5114312390424232
  0.8594875098619639  0.4768036445444537  0.4724542611948337
  0.9315785201001532  0.5141717532164591  0.4716308733758083
  0.0818501960364273  0.5087201981293248  0.4723728088911585
  0.1536988861615782  0.5437799205868288  0.4724902437257441
  0.9693698058746634  0.5768069636051081  0.4276944929390467
  0.4299648680643813  0.9342610467502652  0.4724559515804856
  0.3931582801912086  0.8624474609471022  0.4726147632629463
 
  0.00000000E+00  0.00000000E+00  0.00000000E+00
  0.00000000E+00  0.00000000E+00  0.00000000E+00
  0.00000000E+00  0.00000000E+00  0.00000000E+00
  0.00000000E+00  0.00000000E+00  0.00000000E+00
  0.00000000E+00  0.00000000E+00  0.00000000E+00
  0.00000000E+00  0.00000000E+00  0.00000000E+00
  0.00000000E+00  0.00000000E+00  0.00000000E+00
  0.00000000E+00  0.00000000E+00  0.00000000E+00
  0.00000000E+00  0.00000000E+00  0.00000000E+00
  0.00000000E+00  0.00000000E+00  0.00000000E+00
  0.00000000E+00  0.00000000E+00  0.00000000E+00
  0.00000000E+00  0.00000000E+00  0.00000000E+00
  0.00000000E+00  0.00000000E+00  0.00000000E+00
  0.00000000E+00  0.00000000E+00  0.00000000E+00
  0.00000000E+00  0.00000000E+00  0.00000000E+00
  0.00000000E+00  0.00000000E+00  0.00000000E+00
  0.00000000E+00  0.00000000E+00  0.00000000E+00
  0.00000000E+00  0.00000000E+00  0.00000000E+00
  0.00000000E+00  0.00000000E+00  0.00000000E+00
  0.00000000E+00  0.00000000E+00  0.00000000E+00
  0.00000000E+00  0.00000000E+00  0.00000000E+00
  0.00000000E+00  0.00000000E+00  0.00000000E+00
  0.00000000E+00  0.00000000E+00  0.00000000E+00
  0.00000000E+00  0.00000000E+00  0.00000000E+00
  0.00000000E+00  0.00000000E+00  0.00000000E+00
  0.00000000E+00  0.00000000E+00  0.00000000E+00
  0.00000000E+00  0.00000000E+00  0.00000000E+00
  0.00000000E+00  0.00000000E+00  0.00000000E+00
  0.00000000E+00  0.00000000E+00  0.00000000E+00
  0.00000000E+00  0.00000000E+00  0.00000000E+00
  0.00000000E+00  0.00000000E+00  0.00000000E+00
  0.00000000E+00  0.00000000E+00  0.00000000E+00
  0.00000000E+00  0.00000000E+00  0.00000000E+00
  0.00000000E+00  0.00000000E+00  0.00000000E+00
  0.00000000E+00  0.00000000E+00  0.00000000E+00
  0.00000000E+00  0.00000000E+00  0.00000000E+00
  0.00000000E+00  0.00000000E+00  0.00000000E+00
  0.00000000E+00  0.00000000E+00  0.00000000E+00
  0.00000000E+00  0.00000000E+00  0.00000000E+00
  0.00000000E+00  0.00000000E+00  0.00000000E+00
  0.00000000E+00  0.00000000E+00  0.00000000E+00
  0.00000000E+00  0.00000000E+00  0.00000000E+00
  0.00000000E+00  0.00000000E+00  0.00000000E+00
  0.00000000E+00  0.00000000E+00  0.00000000E+00
  0.00000000E+00  0.00000000E+00  0.00000000E+00
  0.00000000E+00  0.00000000E+00  0.00000000E+00
  0.00000000E+00  0.00000000E+00  0.00000000E+00
  0.00000000E+00  0.00000000E+00  0.00000000E+00
  0.00000000E+00  0.00000000E+00  0.00000000E+00
  0.00000000E+00  0.00000000E+00  0.00000000E+00
  0.00000000E+00  0.00000000E+00  0.00000000E+00
  0.00000000E+00  0.00000000E+00  0.00000000E+00
  0.00000000E+00  0.00000000E+00  0.00000000E+00
  0.00000000E+00  0.00000000E+00  0.00000000E+00
  0.00000000E+00  0.00000000E+00  0.00000000E+00
  0.00000000E+00  0.00000000E+00  0.00000000E+00
  0.00000000E+00  0.00000000E+00  0.00000000E+00
  0.00000000E+00  0.00000000E+00  0.00000000E+00
  0.00000000E+00  0.00000000E+00  0.00000000E+00
  0.00000000E+00  0.00000000E+00  0.00000000E+00
  0.00000000E+00  0.00000000E+00  0.00000000E+00
  0.00000000E+00  0.00000000E+00  0.00000000E+00
  0.00000000E+00  0.00000000E+00  0.00000000E+00
  0.00000000E+00  0.00000000E+00  0.00000000E+00
  0.00000000E+00  0.00000000E+00  0.00000000E+00
  0.00000000E+00  0.00000000E+00  0.00000000E+00
  0.00000000E+00  0.00000000E+00  0.00000000E+00
  0.00000000E+00  0.00000000E+00  0.00000000E+00
  0.00000000E+00  0.00000000E+00  0.00000000E+00
  0.00000000E+00  0.00000000E+00  0.00000000E+00
  0.00000000E+00  0.00000000E+00  0.00000000E+00
  0.00000000E+00  0.00000000E+00  0.00000000E+00
  0.00000000E+00  0.00000000E+00  0.00000000E+00
  0.00000000E+00  0.00000000E+00  0.00000000E+00
  0.00000000E+00  0.00000000E+00  0.00000000E+00
  0.00000000E+00  0.00000000E+00  0.00000000E+00
  0.00000000E+00  0.00000000E+00  0.00000000E+00
  0.00000000E+00  0.00000000E+00  0.00000000E+00
  0.00000000E+00  0.00000000E+00  0.00000000E+00
  0.00000000E+00  0.00000000E+00  0.00000000E+00
  0.00000000E+00  0.00000000E+00  0.00000000E+00
  0.00000000E+00  0.00000000E+00  0.00000000E+00
  0.00000000E+00  0.00000000E+00  0.00000000E+00
  0.00000000E+00  0.00000000E+00  0.00000000E+00
  0.00000000E+00  0.00000000E+00  0.00000000E+00
  0.00000000E+00  0.00000000E+00  0.00000000E+00
  0.00000000E+00  0.00000000E+00  0.00000000E+00
  0.00000000E+00  0.00000000E+00  0.00000000E+00
  0.00000000E+00  0.00000000E+00  0.00000000E+00
  0.00000000E+00  0.00000000E+00  0.00000000E+00
  0.00000000E+00  0.00000000E+00  0.00000000E+00
  0.00000000E+00  0.00000000E+00  0.00000000E+00
  0.00000000E+00  0.00000000E+00  0.00000000E+00
  0.00000000E+00  0.00000000E+00  0.00000000E+00
  0.00000000E+00  0.00000000E+00  0.00000000E+00
  0.00000000E+00  0.00000000E+00  0.00000000E+00
