Primitive Cell                          
   1.00000000000000     
    14.6045439115580091   -0.0000000061354571    0.0000000000000000
    -7.3022719504655491   12.6479060411623223    0.0000000000000000
     0.0000000000000000    0.0000000000000000   20.0000000000000000
   C    H    N 
    30    24     6
Direct
  0.3899469475147654  0.7708273066048932  0.5020025547648288
  0.2291726933951068  0.6191196409098723  0.5020025547648288
  0.3808803590901277  0.6100530524852346  0.5020025547648288
  0.6100530524852346  0.2291726933951068  0.4979974452351712
  0.7708273066048932  0.3808803590901277  0.4979974452351712
  0.6191196409098723  0.3899469475147654  0.4979974452351712
  0.4372508353975419  0.5489920242807997  0.5016533230991911
  0.3885557821741514  0.4387494274670729  0.5142190297164504
  0.4537432713493459  0.3942986404070723  0.5120062878983660
  0.2733467340962861  0.3664275985227903  0.5300489232264596
  0.4510079757192003  0.8882588111167422  0.5016533230991911
  0.5612505725329271  0.9498063547070785  0.5142190297164504
  0.6057013595929277  0.0594446309422736  0.5120062878983660
  0.6335724014772097  0.9069191355734887  0.5300489232264596
  0.1117411888832578  0.5627491646024581  0.5016533230991911
  0.0501936452929215  0.6114442178258486  0.5142190297164504
  0.9405553690577264  0.5462567286506470  0.5120062878983660
  0.0930808644265113  0.7266532659037139  0.5300489232264596
  0.5627491646024581  0.4510079757192003  0.4983466769008089
  0.6114442178258486  0.5612505725329271  0.4857809702835496
  0.5462567286506470  0.6057013595929277  0.4879937121016411
  0.7266532659037139  0.6335724014772097  0.4699510767735404
  0.5489920242807997  0.1117411888832578  0.4983466769008089
  0.4387494274670729  0.0501936452929215  0.4857809702835496
  0.3942986404070723  0.9405553690577264  0.4879937121016411
  0.3664275985227903  0.0930808644265113  0.4699510767735404
  0.8882588111167422  0.4372508353975419  0.4983466769008089
  0.9498063547070785  0.3885557821741514  0.4857809702835496
  0.0594446309422736  0.4537432713493459  0.4879937121016411
  0.9069191355734887  0.2733467340962861  0.4699510767735404
  0.4188360765815418  0.3099636101611551  0.5215982605992053
  0.2449524833529821  0.3982048364066628  0.5695422978432205
  0.2604961365306764  0.2887173815520612  0.5455684876196401
  0.2235355435385671  0.3553701165923329  0.4861688429183317
  0.6900363898388449  0.1088724664203866  0.5215982605992053
  0.6017951635933372  0.8467476469463193  0.5695422978432205
  0.7112826184479388  0.9717787549786223  0.5455684876196401
  0.6446298834076671  0.8681654269462342  0.4861688429183317
  0.8911275335796205  0.5811639234184582  0.5215982605992053
  0.1532523530536807  0.7550475166470179  0.5695422978432205
  0.0282212450213777  0.7395038634693236  0.5455684876196401
  0.1318345730537658  0.7764644564614329  0.4861688429183317
  0.5811639234184582  0.6900363898388449  0.4784017394007947
  0.7550475166470179  0.6017951635933372  0.4304577021567795
  0.7764644564614329  0.6446298834076671  0.5138311570816683
  0.7395038634693236  0.7112826184479388  0.4544315123803599
  0.3099636101611551  0.8911275335796205  0.4784017394007947
  0.3982048364066628  0.1532523530536807  0.4304577021567795
  0.3553701165923329  0.1318345730537658  0.5138311570816683
  0.2887173815520612  0.0282212450213777  0.4544315123803599
  0.1088724664203866  0.4188360765815418  0.4784017394007947
  0.8467476469463193  0.2449524833529821  0.4304577021567795
  0.8681654269462342  0.2235355435385671  0.5138311570816683
  0.9717787549786223  0.2604961365306764  0.4544315123803599
  0.2832544216730355  0.7249390877156046  0.5019326898647520
  0.2750609122843954  0.5583153339574309  0.5019326898647520
  0.4416846660425691  0.7167455783269645  0.5019326898647520
  0.7167455783269645  0.2750609122843954  0.4980673101352480
  0.7249390877156046  0.4416846660425691  0.4980673101352480
  0.5583153339574309  0.2832544216730355  0.4980673101352480
 
  0.00000000E+00  0.00000000E+00  0.00000000E+00
  0.00000000E+00  0.00000000E+00  0.00000000E+00
  0.00000000E+00  0.00000000E+00  0.00000000E+00
  0.00000000E+00  0.00000000E+00  0.00000000E+00
  0.00000000E+00  0.00000000E+00  0.00000000E+00
  0.00000000E+00  0.00000000E+00  0.00000000E+00
  0.00000000E+00  0.00000000E+00  0.00000000E+00
  0.00000000E+00  0.00000000E+00  0.00000000E+00
  0.00000000E+00  0.00000000E+00  0.00000000E+00
  0.00000000E+00  0.00000000E+00  0.00000000E+00
  0.00000000E+00  0.00000000E+00  0.00000000E+00
  0.00000000E+00  0.00000000E+00  0.00000000E+00
  0.00000000E+00  0.00000000E+00  0.00000000E+00
  0.00000000E+00  0.00000000E+00  0.00000000E+00
  0.00000000E+00  0.00000000E+00  0.00000000E+00
  0.00000000E+00  0.00000000E+00  0.00000000E+00
  0.00000000E+00  0.00000000E+00  0.00000000E+00
  0.00000000E+00  0.00000000E+00  0.00000000E+00
  0.00000000E+00  0.00000000E+00  0.00000000E+00
  0.00000000E+00  0.00000000E+00  0.00000000E+00
  0.00000000E+00  0.00000000E+00  0.00000000E+00
  0.00000000E+00  0.00000000E+00  0.00000000E+00
  0.00000000E+00  0.00000000E+00  0.00000000E+00
  0.00000000E+00  0.00000000E+00  0.00000000E+00
  0.00000000E+00  0.00000000E+00  0.00000000E+00
  0.00000000E+00  0.00000000E+00  0.00000000E+00
  0.00000000E+00  0.00000000E+00  0.00000000E+00
  0.00000000E+00  0.00000000E+00  0.00000000E+00
  0.00000000E+00  0.00000000E+00  0.00000000E+00
  0.00000000E+00  0.00000000E+00  0.00000000E+00
  0.00000000E+00  0.00000000E+00  0.00000000E+00
  0.00000000E+00  0.00000000E+00  0.00000000E+00
  0.00000000E+00  0.00000000E+00  0.00000000E+00
  0.00000000E+00  0.00000000E+00  0.00000000E+00
  0.00000000E+00  0.00000000E+00  0.00000000E+00
  0.00000000E+00  0.00000000E+00  0.00000000E+00
  0.00000000E+00  0.00000000E+00  0.00000000E+00
  0.00000000E+00  0.00000000E+00  0.00000000E+00
  0.00000000E+00  0.00000000E+00  0.00000000E+00
  0.00000000E+00  0.00000000E+00  0.00000000E+00
  0.00000000E+00  0.00000000E+00  0.00000000E+00
  0.00000000E+00  0.00000000E+00  0.00000000E+00
  0.00000000E+00  0.00000000E+00  0.00000000E+00
  0.00000000E+00  0.00000000E+00  0.00000000E+00
  0.00000000E+00  0.00000000E+00  0.00000000E+00
  0.00000000E+00  0.00000000E+00  0.00000000E+00
  0.00000000E+00  0.00000000E+00  0.00000000E+00
  0.00000000E+00  0.00000000E+00  0.00000000E+00
  0.00000000E+00  0.00000000E+00  0.00000000E+00
  0.00000000E+00  0.00000000E+00  0.00000000E+00
  0.00000000E+00  0.00000000E+00  0.00000000E+00
  0.00000000E+00  0.00000000E+00  0.00000000E+00
  0.00000000E+00  0.00000000E+00  0.00000000E+00
  0.00000000E+00  0.00000000E+00  0.00000000E+00
  0.00000000E+00  0.00000000E+00  0.00000000E+00
  0.00000000E+00  0.00000000E+00  0.00000000E+00
  0.00000000E+00  0.00000000E+00  0.00000000E+00
  0.00000000E+00  0.00000000E+00  0.00000000E+00
  0.00000000E+00  0.00000000E+00  0.00000000E+00
  0.00000000E+00  0.00000000E+00  0.00000000E+00
