Primitive Cell                          
   1.00000000000000     
    14.5651539284645821    0.0236959986250360    0.0000000000000000
     0.0407800486789632   25.1616191242240568    0.0000000000000000
     0.0000000000000000    0.0000000000000000   20.0000000000000000
   N    H    O    C 
    24    12    24    48
Direct
  0.0822715051140364  0.3613053161026727  0.5140202906550897
  0.0045179111224556  0.2800594913447654  0.4908615192957200
  0.9209443855975294  0.3612594890465104  0.4943860027373148
  0.4209879928725613  0.1409124165952349  0.4935970106239012
  0.5040444956675572  0.2220649914100505  0.4943636019089155
  0.5840986239107266  0.1397941474959552  0.4898383334895513
  0.5924130968047905  0.3085118401922244  0.4548593188305290
  0.3866004276644688  0.0576237192106177  0.5864480833918932
  0.3894993003089482  0.2770242378578729  0.5969878775112321
  0.7613149833383872  0.1405379322412870  0.5231193305789859
  0.6102507658308909  0.0500099286940952  0.3952919628909797
  0.2776558437160404  0.1719063435732977  0.4004497286791278
  0.5718983414615266  0.8600102202004223  0.4840457180383595
  0.4912878737419391  0.7793057037815458  0.5025394505500600
  0.4131766340789937  0.8620468275359627  0.5139158092952059
  0.9120541624241341  0.6409526683568103  0.5085860243267462
  0.9917308076138553  0.7233358765466136  0.5096795856515897
  0.0748313109049263  0.6418486030980901  0.5118201118068342
  0.0998239297609658  0.7883904315112247  0.5985874936787283
  0.8397378082032958  0.5523314162433763  0.4546088981973568
  0.7547610915962082  0.6650702402455906  0.5920569017191184
  0.2236223541770315  0.6645668125432280  0.4231981413638053
  0.1501205096827931  0.5542433079850326  0.5680055948546254
  0.8893542265905552  0.7853946873468800  0.4173864730249548
  0.7553785725827424  0.3477711011522544  0.4663877904232336
  0.8610637722753083  0.4507949595200884  0.4697409366785621
  0.2339399946703224  0.3279605447918428  0.5783151590995530
  0.9016201463712861  0.2023801210484066  0.5092073789572709
  0.1365979134411148  0.4523746116781382  0.5490326332260196
  0.1249492632268314  0.2240273975373910  0.4254679426933023
  0.2570261893065151  0.8362092240876535  0.5776661664865017
  0.3855655380094234  0.9545867362842273  0.5680949582720132
  0.6045848302333212  0.7165804667953282  0.5605238994814243
  0.3749903763047797  0.7171568844681104  0.4469536724026497
  0.6031170189120445  0.9480890741740140  0.4210821305286672
  0.7296056879802748  0.8326265375560098  0.4297678107991914
  0.5648156823218571  0.3418038830234806  0.4954502141090629
  0.5630882129557477  0.3009040393161513  0.3977802367119381
  0.4278652956368418  0.0901295765538634  0.6216049233839342
  0.3050087118917588  0.0449843725502319  0.5912288143282609
  0.3983987372143289  0.3240743878520362  0.6130879925269852
  0.4287382081041216  0.2384983613017084  0.6228970837380388
  0.7940866689212314  0.1093543468357439  0.4819304985303532
  0.7389127091712098  0.1305735504288776  0.5812621086179206
  0.5747276930694483  0.0878285186679335  0.3652725080608619
  0.6851949702310804  0.0292572207344506  0.3827728788733182
  0.2142300875943732  0.1402253042847050  0.3916108492547039
  0.3490191593228786  0.1750803707458104  0.3672157209650493
  0.0666628645215610  0.7541319955771542  0.6356283594395862
  0.0820736334137848  0.8364095078745208  0.5990685170826993
  0.7656929715454481  0.5467982607920163  0.4836271599709363
  0.8527006868789613  0.5735907322413070  0.3998007754727908
  0.8220915947264729  0.6670045735734718  0.6296905108503523
  0.6905537864162099  0.6333164047939661  0.5953656522264197
  0.1549904205093142  0.6663075925265005  0.3868109791170298
  0.2868337340184866  0.6319011393438245  0.4201799321858104
  0.2254773166289397  0.5489267475270907  0.5406704768791641
  0.1341822244970317  0.5764216823125352  0.6218598131261786
  0.9232199730326371  0.7511732983244741  0.3804430434387456
  0.9087256340661511  0.8331081935461313  0.4187156608880116
  0.2412195360683853  0.2947769529702953  0.5437506426645271
  0.1805301013731651  0.2367308199214548  0.4581398413055879
  0.6636277865856144  0.7317078806347084  0.5331488754366092
  0.7334102923211390  0.7965448314219543  0.4597168380670595
  0.0009045750638634  0.3860341205331821  0.5060131393787870
  0.0804453292653022  0.3087101829103176  0.5026043524513923
  0.9258093778452263  0.3080912454564029  0.4906184133302816
  0.5022617707697421  0.1159935819539299  0.4914407979056463
  0.4264584077917988  0.1939828055017259  0.4952286901878509
  0.5813048641149052  0.1930497378116343  0.4911242940361689
  0.6742751302399483  0.2768083802642280  0.4748296573397326
  0.7557362451870873  0.3051344629337223  0.4756157353959622
  0.4415819048842451  0.0290950132238805  0.5351572314247193
  0.9208905132950420  0.4724085076955262  0.4875415770904041
  0.3220623877806119  0.2652574211298528  0.5432915477229159
  0.8385141302821708  0.2784027495592909  0.4876131992539001
  0.8376467718513680  0.2236269876274548  0.4997546810603026
  0.7543929988311078  0.1970869598323546  0.5020889126256876
  0.6693878397233561  0.2220028063537853  0.4891762563570694
  0.9990020490421045  0.4447705299661067  0.5091800379305838
  0.0751218459882352  0.4732061720527412  0.5322614625909736
  0.5551086639632032  0.0255448135516119  0.4497330525509966
  0.5001631598351963  0.0569539704910937  0.4919035951862583
  0.1690554501111947  0.2797015333121635  0.5017923326003313
  0.2652751871726409  0.2114541859299592  0.4548232573036159
  0.3381997588261214  0.2237913892029582  0.4978410596684313
  0.4929656753738385  0.8856057121573073  0.4977567743229301
  0.5685717841517146  0.8071188447591666  0.4926693868846712
  0.4149609913251666  0.8087394277916360  0.5101834251709434
  0.9939393490006907  0.6166363908597177  0.5107480226891070
  0.9151473471757683  0.6940733469077642  0.5079045422993644
  0.0695564463926530  0.6948948193909459  0.5113650665970511
  0.1710652232269041  0.7703217210202382  0.5505204257510457
  0.2519213246331091  0.7994982077236941  0.5490921185528421
  0.9212758023302783  0.5275026810830994  0.4868636835962690
  0.4349245866696521  0.9740580648056820  0.5354302465762544
  0.7483795227059815  0.7069335684650824  0.5398360918342320
  0.3266811877865408  0.7799220860595710  0.5126788293556501
  0.3175833446335972  0.7329843832832310  0.4757014184011297
  0.2330046888126631  0.7078623326513735  0.4732815624606701
  0.1576275173262616  0.7244270219937405  0.5118701868867532
  0.4946208376054386  0.9443439255725607  0.4952927690642781
  0.5562827749135550  0.9704191766272459  0.4529627253138457
  0.0708189146813822  0.5282666343167008  0.5347910840875230
  0.9952253902639825  0.5578652343946828  0.5110760358388973
  0.6564462681284766  0.7776311106186427  0.4939428800436119
  0.8148417432740942  0.7677819353660951  0.4628273990246683
  0.8262915391870891  0.7229079629286659  0.5037547055453260
 
  0.00000000E+00  0.00000000E+00  0.00000000E+00
  0.00000000E+00  0.00000000E+00  0.00000000E+00
  0.00000000E+00  0.00000000E+00  0.00000000E+00
  0.00000000E+00  0.00000000E+00  0.00000000E+00
  0.00000000E+00  0.00000000E+00  0.00000000E+00
  0.00000000E+00  0.00000000E+00  0.00000000E+00
  0.00000000E+00  0.00000000E+00  0.00000000E+00
  0.00000000E+00  0.00000000E+00  0.00000000E+00
  0.00000000E+00  0.00000000E+00  0.00000000E+00
  0.00000000E+00  0.00000000E+00  0.00000000E+00
  0.00000000E+00  0.00000000E+00  0.00000000E+00
  0.00000000E+00  0.00000000E+00  0.00000000E+00
  0.00000000E+00  0.00000000E+00  0.00000000E+00
  0.00000000E+00  0.00000000E+00  0.00000000E+00
  0.00000000E+00  0.00000000E+00  0.00000000E+00
  0.00000000E+00  0.00000000E+00  0.00000000E+00
  0.00000000E+00  0.00000000E+00  0.00000000E+00
  0.00000000E+00  0.00000000E+00  0.00000000E+00
  0.00000000E+00  0.00000000E+00  0.00000000E+00
  0.00000000E+00  0.00000000E+00  0.00000000E+00
  0.00000000E+00  0.00000000E+00  0.00000000E+00
  0.00000000E+00  0.00000000E+00  0.00000000E+00
  0.00000000E+00  0.00000000E+00  0.00000000E+00
  0.00000000E+00  0.00000000E+00  0.00000000E+00
  0.00000000E+00  0.00000000E+00  0.00000000E+00
  0.00000000E+00  0.00000000E+00  0.00000000E+00
  0.00000000E+00  0.00000000E+00  0.00000000E+00
  0.00000000E+00  0.00000000E+00  0.00000000E+00
  0.00000000E+00  0.00000000E+00  0.00000000E+00
  0.00000000E+00  0.00000000E+00  0.00000000E+00
  0.00000000E+00  0.00000000E+00  0.00000000E+00
  0.00000000E+00  0.00000000E+00  0.00000000E+00
  0.00000000E+00  0.00000000E+00  0.00000000E+00
  0.00000000E+00  0.00000000E+00  0.00000000E+00
  0.00000000E+00  0.00000000E+00  0.00000000E+00
  0.00000000E+00  0.00000000E+00  0.00000000E+00
  0.00000000E+00  0.00000000E+00  0.00000000E+00
  0.00000000E+00  0.00000000E+00  0.00000000E+00
  0.00000000E+00  0.00000000E+00  0.00000000E+00
  0.00000000E+00  0.00000000E+00  0.00000000E+00
  0.00000000E+00  0.00000000E+00  0.00000000E+00
  0.00000000E+00  0.00000000E+00  0.00000000E+00
  0.00000000E+00  0.00000000E+00  0.00000000E+00
  0.00000000E+00  0.00000000E+00  0.00000000E+00
  0.00000000E+00  0.00000000E+00  0.00000000E+00
  0.00000000E+00  0.00000000E+00  0.00000000E+00
  0.00000000E+00  0.00000000E+00  0.00000000E+00
  0.00000000E+00  0.00000000E+00  0.00000000E+00
  0.00000000E+00  0.00000000E+00  0.00000000E+00
  0.00000000E+00  0.00000000E+00  0.00000000E+00
  0.00000000E+00  0.00000000E+00  0.00000000E+00
  0.00000000E+00  0.00000000E+00  0.00000000E+00
  0.00000000E+00  0.00000000E+00  0.00000000E+00
  0.00000000E+00  0.00000000E+00  0.00000000E+00
  0.00000000E+00  0.00000000E+00  0.00000000E+00
  0.00000000E+00  0.00000000E+00  0.00000000E+00
  0.00000000E+00  0.00000000E+00  0.00000000E+00
  0.00000000E+00  0.00000000E+00  0.00000000E+00
  0.00000000E+00  0.00000000E+00  0.00000000E+00
  0.00000000E+00  0.00000000E+00  0.00000000E+00
  0.00000000E+00  0.00000000E+00  0.00000000E+00
  0.00000000E+00  0.00000000E+00  0.00000000E+00
  0.00000000E+00  0.00000000E+00  0.00000000E+00
  0.00000000E+00  0.00000000E+00  0.00000000E+00
  0.00000000E+00  0.00000000E+00  0.00000000E+00
  0.00000000E+00  0.00000000E+00  0.00000000E+00
  0.00000000E+00  0.00000000E+00  0.00000000E+00
  0.00000000E+00  0.00000000E+00  0.00000000E+00
  0.00000000E+00  0.00000000E+00  0.00000000E+00
  0.00000000E+00  0.00000000E+00  0.00000000E+00
  0.00000000E+00  0.00000000E+00  0.00000000E+00
  0.00000000E+00  0.00000000E+00  0.00000000E+00
  0.00000000E+00  0.00000000E+00  0.00000000E+00
  0.00000000E+00  0.00000000E+00  0.00000000E+00
  0.00000000E+00  0.00000000E+00  0.00000000E+00
  0.00000000E+00  0.00000000E+00  0.00000000E+00
  0.00000000E+00  0.00000000E+00  0.00000000E+00
  0.00000000E+00  0.00000000E+00  0.00000000E+00
  0.00000000E+00  0.00000000E+00  0.00000000E+00
  0.00000000E+00  0.00000000E+00  0.00000000E+00
  0.00000000E+00  0.00000000E+00  0.00000000E+00
  0.00000000E+00  0.00000000E+00  0.00000000E+00
  0.00000000E+00  0.00000000E+00  0.00000000E+00
  0.00000000E+00  0.00000000E+00  0.00000000E+00
  0.00000000E+00  0.00000000E+00  0.00000000E+00
  0.00000000E+00  0.00000000E+00  0.00000000E+00
  0.00000000E+00  0.00000000E+00  0.00000000E+00
  0.00000000E+00  0.00000000E+00  0.00000000E+00
  0.00000000E+00  0.00000000E+00  0.00000000E+00
  0.00000000E+00  0.00000000E+00  0.00000000E+00
  0.00000000E+00  0.00000000E+00  0.00000000E+00
  0.00000000E+00  0.00000000E+00  0.00000000E+00
  0.00000000E+00  0.00000000E+00  0.00000000E+00
  0.00000000E+00  0.00000000E+00  0.00000000E+00
  0.00000000E+00  0.00000000E+00  0.00000000E+00
  0.00000000E+00  0.00000000E+00  0.00000000E+00
  0.00000000E+00  0.00000000E+00  0.00000000E+00
  0.00000000E+00  0.00000000E+00  0.00000000E+00
  0.00000000E+00  0.00000000E+00  0.00000000E+00
  0.00000000E+00  0.00000000E+00  0.00000000E+00
  0.00000000E+00  0.00000000E+00  0.00000000E+00
  0.00000000E+00  0.00000000E+00  0.00000000E+00
  0.00000000E+00  0.00000000E+00  0.00000000E+00
  0.00000000E+00  0.00000000E+00  0.00000000E+00
  0.00000000E+00  0.00000000E+00  0.00000000E+00
  0.00000000E+00  0.00000000E+00  0.00000000E+00
  0.00000000E+00  0.00000000E+00  0.00000000E+00
  0.00000000E+00  0.00000000E+00  0.00000000E+00
