Primitive Cell                          
   1.00000000000000     
    14.9867378032523195   -0.0039721627272325    0.0000000000000000
    -7.4935033810846212   12.8932551278194545    0.0000000000000000
    -0.0000000000000100    0.0000000000000000   20.0000000000000000
   C    N    H    O 
    30     6    12    12
Direct
  0.5198831607565921  0.5873872091904531  0.4561476178731354
  0.4256127907283513  0.4739756498920471  0.5457885520563437
  0.3855144032472211  0.6143765825291467  0.5096471801721094
  0.4388485990688196  0.7230389714414471  0.5089226650606733
  0.3852399920191516  0.7774908038699095  0.5085138284785629
  0.2771407859472390  0.7219530680945212  0.5083516585274310
  0.2227905615824213  0.6134021607295992  0.5093282424277987
  0.2774626213825826  0.5599971458496427  0.5100163980485490
  0.6119630493116048  0.3924092783298576  0.4837369733405055
  0.5581327922800696  0.2837281735910224  0.4845939341081120
  0.6112125509997384  0.2287471567744674  0.4849530360349306
  0.7193206523410396  0.2837518229203653  0.4850812567734835
  0.7741671663515248  0.3922904847359661  0.4839544561718938
  0.7200199656218942  0.4462450238682294  0.4831741232712972
  0.8882283883044977  0.4480499161870881  0.4882614592107259
  0.9547409772145983  0.5326612300738418  0.4478454077824452
  0.0613379833431367  0.5860903792326795  0.4558429681738048
  0.5530848652457578  0.1141275168222862  0.4885863168858862
  0.5761472539606345  0.0487958219749984  0.4508108997304490
  0.5236818836523369  0.9416347689297808  0.4585631296756532
  0.5540198782215313  0.4485215986417046  0.4880200041516574
  0.5724144859860161  0.5333983840488798  0.4477531348816086
  0.1087214019317031  0.5571456584806356  0.5049154630648331
  0.0422380948658301  0.4723274673306932  0.5452176823636208
  0.9356197880362274  0.4189913630893614  0.5372667736762367
  0.4429281122943607  0.8921071795855866  0.5047446862246900
  0.4197291590414025  0.9574123874017246  0.5424342255618129
  0.4722019749762438  0.0645834365782818  0.5346841028939195
  0.4439154202449913  0.5587460734150511  0.5054746119517119
  0.4781166886503883  0.4199693557767290  0.5373887249983653
  0.9147345413448704  0.5658033034582530  0.3910117627514467
  0.6551437660228103  0.0910257569334760  0.3972652930602365
  0.6446685451781278  0.5657538279998064  0.3904052804897660
  0.0822874124208326  0.4389642665698688  0.6019369819623392
  0.3406248880187306  0.9150157272534898  0.5958979382597533
  0.3532032012545017  0.4415858471846121  0.6030281050723971
  0.2342261030107053  0.7632131537844060  0.5071628085734687
  0.2355220445961166  0.4753591259172580  0.5083465683464254
  0.5230548855561281  0.7655345128944688  0.5103847801622123
  0.7618768245931307  0.2421196450797822  0.4863438510273852
  0.7623796052565766  0.5308945300250585  0.4846493925127859
  0.4739225525019037  0.2415993481508778  0.4832742095768978
  0.1083139058342226  0.6495257437139799  0.4217038670977473
  0.5441752510456936  0.8957499599701464  0.4264111887206283
  0.5362966971066214  0.6508132021274946  0.4220105945243091
  0.8886403899550359  0.3555494509120507  0.5714025874376887
  0.4516687491066094  0.1104572467052520  0.5668173642377994
  0.4615459050507482  0.3564015467183737  0.5714356324587442
  0.3595904363693592  0.5108857795747426  0.6400547270847383
  0.2936787086705763  0.3471325003401589  0.6100680609150757
  0.8509663661695654  0.4970092267236055  0.3540608066030799
  0.9504669841524276  0.6604494944749106  0.3842892217126419
  0.6514648979043187  0.1522985936376458  0.3573287349028931
  0.7178503854334863  0.0599041547900470  0.3961813710023065
  0.6378648072708941  0.4963090066199669  0.3533205385549749
  0.7043962960979258  0.6601666726932223  0.3833615319718007
  0.1466832728022283  0.5076929356825133  0.6386377425289211
  0.0460027660954054  0.3442672261251616  0.6088441010221572
  0.3441128607144321  0.8533676516077264  0.6355936339543149
  0.2780130028581240  0.9462794929456351  0.5971337572028190
 
  0.00000000E+00  0.00000000E+00  0.00000000E+00
  0.00000000E+00  0.00000000E+00  0.00000000E+00
  0.00000000E+00  0.00000000E+00  0.00000000E+00
  0.00000000E+00  0.00000000E+00  0.00000000E+00
  0.00000000E+00  0.00000000E+00  0.00000000E+00
  0.00000000E+00  0.00000000E+00  0.00000000E+00
  0.00000000E+00  0.00000000E+00  0.00000000E+00
  0.00000000E+00  0.00000000E+00  0.00000000E+00
  0.00000000E+00  0.00000000E+00  0.00000000E+00
  0.00000000E+00  0.00000000E+00  0.00000000E+00
  0.00000000E+00  0.00000000E+00  0.00000000E+00
  0.00000000E+00  0.00000000E+00  0.00000000E+00
  0.00000000E+00  0.00000000E+00  0.00000000E+00
  0.00000000E+00  0.00000000E+00  0.00000000E+00
  0.00000000E+00  0.00000000E+00  0.00000000E+00
  0.00000000E+00  0.00000000E+00  0.00000000E+00
  0.00000000E+00  0.00000000E+00  0.00000000E+00
  0.00000000E+00  0.00000000E+00  0.00000000E+00
  0.00000000E+00  0.00000000E+00  0.00000000E+00
  0.00000000E+00  0.00000000E+00  0.00000000E+00
  0.00000000E+00  0.00000000E+00  0.00000000E+00
  0.00000000E+00  0.00000000E+00  0.00000000E+00
  0.00000000E+00  0.00000000E+00  0.00000000E+00
  0.00000000E+00  0.00000000E+00  0.00000000E+00
  0.00000000E+00  0.00000000E+00  0.00000000E+00
  0.00000000E+00  0.00000000E+00  0.00000000E+00
  0.00000000E+00  0.00000000E+00  0.00000000E+00
  0.00000000E+00  0.00000000E+00  0.00000000E+00
  0.00000000E+00  0.00000000E+00  0.00000000E+00
  0.00000000E+00  0.00000000E+00  0.00000000E+00
  0.00000000E+00  0.00000000E+00  0.00000000E+00
  0.00000000E+00  0.00000000E+00  0.00000000E+00
  0.00000000E+00  0.00000000E+00  0.00000000E+00
  0.00000000E+00  0.00000000E+00  0.00000000E+00
  0.00000000E+00  0.00000000E+00  0.00000000E+00
  0.00000000E+00  0.00000000E+00  0.00000000E+00
  0.00000000E+00  0.00000000E+00  0.00000000E+00
  0.00000000E+00  0.00000000E+00  0.00000000E+00
  0.00000000E+00  0.00000000E+00  0.00000000E+00
  0.00000000E+00  0.00000000E+00  0.00000000E+00
  0.00000000E+00  0.00000000E+00  0.00000000E+00
  0.00000000E+00  0.00000000E+00  0.00000000E+00
  0.00000000E+00  0.00000000E+00  0.00000000E+00
  0.00000000E+00  0.00000000E+00  0.00000000E+00
  0.00000000E+00  0.00000000E+00  0.00000000E+00
  0.00000000E+00  0.00000000E+00  0.00000000E+00
  0.00000000E+00  0.00000000E+00  0.00000000E+00
  0.00000000E+00  0.00000000E+00  0.00000000E+00
  0.00000000E+00  0.00000000E+00  0.00000000E+00
  0.00000000E+00  0.00000000E+00  0.00000000E+00
  0.00000000E+00  0.00000000E+00  0.00000000E+00
  0.00000000E+00  0.00000000E+00  0.00000000E+00
  0.00000000E+00  0.00000000E+00  0.00000000E+00
  0.00000000E+00  0.00000000E+00  0.00000000E+00
  0.00000000E+00  0.00000000E+00  0.00000000E+00
  0.00000000E+00  0.00000000E+00  0.00000000E+00
  0.00000000E+00  0.00000000E+00  0.00000000E+00
  0.00000000E+00  0.00000000E+00  0.00000000E+00
  0.00000000E+00  0.00000000E+00  0.00000000E+00
  0.00000000E+00  0.00000000E+00  0.00000000E+00
