Primitive Cell                          
   1.00000000000000     
    22.4594192092912408    0.0315032533453945    0.0000000000000000
   -11.2024307311925302   19.3956462361703679    0.0000000000000000
     0.0000000000000000    0.0000000000000000   20.0000000000000000
   C    N    H    O 
    48     6    24    12
Direct
  0.4705749760274855  0.9510976187653810  0.4809629983461718
  0.4123017302324143  0.9116856483045410  0.4410416098565051
  0.4947348003408933  0.9147367331447072  0.5186106632004837
  0.3785296992292544  0.8401250701577681  0.4401956031388607
  0.4025357507530956  0.8043815686672531  0.4789119411794616
  0.4617394834766486  0.8429961313757204  0.5177108123975316
  0.3653795122261485  0.7281748693283419  0.4791036052927140
  0.4012060206892301  0.6918302108017969  0.4783537041985753
  0.2933211026635263  0.6911756724477058  0.4802586889709985
  0.3660916136602239  0.6195964581731559  0.4788330618672774
  0.2941181820165681  0.5836871476559935  0.4797343442575652
  0.2572190463020902  0.6190088257813784  0.4802703011690710
  0.6275312157182000  0.2504957292128580  0.4919307153554868
  0.5925227740013241  0.2877238947134870  0.4913489743865682
  0.6283626313988435  0.3599009451279755  0.4918683514717230
  0.7004082945570218  0.3950068207603081  0.4925985293823274
  0.7365094647840280  0.3589327053021094  0.4929469142282272
  0.6995298527739138  0.2866838893639994  0.4927207952798938
  0.8125371852435350  0.3960734662931316  0.4928968600690666
  0.8508324563406973  0.4541036025554064  0.4522532913577422
  0.9222470817431798  0.4867286973510119  0.4504553213269205
  0.9586927255410060  0.4628694698733540  0.4883848991408613
  0.0350777885555971  0.5010654725166006  0.4843127318644065
  0.0739253718632185  0.4852429240873164  0.4401096870860712
  0.1453648995807768  0.5234244934621870  0.4384364906699858
  0.1812063534341846  0.5801656785799381  0.4806895263805657
  0.5910389017677460  0.3987883179673801  0.4912928737893623
  0.5336098518009678  0.3792552265440250  0.4500020654227228
  0.5004818924668797  0.4177532800914392  0.4481807088159542
  0.5232255672884989  0.4775495792872917  0.4867595566439533
  0.4845697870797210  0.5154684388085684  0.4827177066748760
  0.4995607358508636  0.5695361457235819  0.4379071994087553
  0.4611333286474988  0.6027061349025260  0.4359855045344432
  0.4049687277516014  0.5822753269841456  0.4787542381544228
  0.5885465498138345  0.1742907514619247  0.4912604327904120
  0.6097874214869350  0.1358005617497469  0.4526743593942726
  0.5709081780563778  0.0642682268292560  0.4503415645399755
  0.5086209811321751  0.0276731684640623  0.4851633836158626
  0.9198361373997628  0.4066569034436043  0.5310025782661043
  0.8484079659965644  0.3736019197966840  0.5332178506057588
  0.1430028580514318  0.5984861653448661  0.5230138176699271
  0.0715607217173400  0.5597196118991477  0.5244631010982062
  0.5789546969609916  0.4947778639157008  0.5298598268188783
  0.6125098266698572  0.4567097437033780  0.5320990352125676
  0.3873352316813126  0.5261728350278858  0.5215918609308332
  0.4263037203388080  0.4935510637326388  0.5231911357344359
  0.4898076584124311  0.0667162511886232  0.5259405049693271
  0.5286270598842009  0.1382819627127887  0.5292454353244054
  0.3834523120829374  0.9451077366101828  0.3984803813184215
  0.0404880850429805  0.4262818215270698  0.3934965236815771
  0.5579304954223048  0.5944206854013103  0.3908944356392254
  0.9533928642546172  0.3793294988199634  0.5752591424368916
  0.6052600802609192  0.5552627068084774  0.5745956706024486
  0.4277155469607976  0.0334119610383823  0.5682910558891905
  0.5395974192557063  0.9437597753635885  0.5504399661320392
  0.3336328984654813  0.8128551977995642  0.4081783646386796
  0.4812378648710265  0.8166356443654621  0.5490071856908472
  0.2649713430819673  0.7190280353433920  0.4809933973027753
  0.4572670786399939  0.7200290988281353  0.4774517265678000
  0.2663077926822979  0.5274579218538165  0.4799406956156886
  0.7286899762823396  0.4512282440698527  0.4927855277373041
  0.7273813021938196  0.2583352869016480  0.4930393237855384
  0.5364656162555974  0.2599804386006781  0.4904679812528627
  0.1723570881906440  0.5085491330208285  0.4029000194623507
  0.8242973271483862  0.4728985349212778  0.4203317622397122
  0.9509928245485568  0.5309564061752283  0.4176958075022768
  0.4753926731251639  0.6441350992254655  0.3999771885999905
  0.5156442314574150  0.3342816525360206  0.4176599750824863
  0.4566704372525621  0.4023671074983284  0.4149881620259137
  0.6564821951819368  0.1623325902883437  0.4227156013451676
  0.5876945678012788  0.0354538113942553  0.4192215055900519
  0.8215028035990883  0.3305662511083156  0.5675823013063663
  0.1696089005573782  0.6426208264617728  0.5563938502205019
  0.0428173031155907  0.5739400007833950  0.5585880461922059
  0.6550998659394338  0.4727112597038428  0.5668891968395897
  0.3436156331400682  0.5090247503374812  0.5553245576380590
  0.4126001832519037  0.4509161634634467  0.5576861508812385
  0.5116286471316442  0.1651416598908213  0.5627445612970945
  0.4199515454209504  0.0076935050821163  0.3872697496924431
  0.3246650512760425  0.9085238587304403  0.3760715394526883
  0.0766019595687624  0.4215396428392921  0.3492463786476563
  0.9782884502440581  0.3849530266561771  0.4011208563495217
  0.5599995121988428  0.6315982146920334  0.3439312820149070
  0.6014646037071572  0.5767087519731717  0.4009382319067925
  0.9180575273193057  0.3386111521689514  0.6199643876709402
  0.0149314175173387  0.3985906283006528  0.5652586415043572
  0.6454230134172647  0.5603646975219192  0.6197340090612258
  0.5857779420094076  0.5975170466701556  0.5645218932071856
  0.4268042953513671  0.0647975272736261  0.6190205190587292
  0.3801695113667520  0.9761964245684140  0.5506666300088341
 
  0.00000000E+00  0.00000000E+00  0.00000000E+00
  0.00000000E+00  0.00000000E+00  0.00000000E+00
  0.00000000E+00  0.00000000E+00  0.00000000E+00
  0.00000000E+00  0.00000000E+00  0.00000000E+00
  0.00000000E+00  0.00000000E+00  0.00000000E+00
  0.00000000E+00  0.00000000E+00  0.00000000E+00
  0.00000000E+00  0.00000000E+00  0.00000000E+00
  0.00000000E+00  0.00000000E+00  0.00000000E+00
  0.00000000E+00  0.00000000E+00  0.00000000E+00
  0.00000000E+00  0.00000000E+00  0.00000000E+00
  0.00000000E+00  0.00000000E+00  0.00000000E+00
  0.00000000E+00  0.00000000E+00  0.00000000E+00
  0.00000000E+00  0.00000000E+00  0.00000000E+00
  0.00000000E+00  0.00000000E+00  0.00000000E+00
  0.00000000E+00  0.00000000E+00  0.00000000E+00
  0.00000000E+00  0.00000000E+00  0.00000000E+00
  0.00000000E+00  0.00000000E+00  0.00000000E+00
  0.00000000E+00  0.00000000E+00  0.00000000E+00
  0.00000000E+00  0.00000000E+00  0.00000000E+00
  0.00000000E+00  0.00000000E+00  0.00000000E+00
  0.00000000E+00  0.00000000E+00  0.00000000E+00
  0.00000000E+00  0.00000000E+00  0.00000000E+00
  0.00000000E+00  0.00000000E+00  0.00000000E+00
  0.00000000E+00  0.00000000E+00  0.00000000E+00
  0.00000000E+00  0.00000000E+00  0.00000000E+00
  0.00000000E+00  0.00000000E+00  0.00000000E+00
  0.00000000E+00  0.00000000E+00  0.00000000E+00
  0.00000000E+00  0.00000000E+00  0.00000000E+00
  0.00000000E+00  0.00000000E+00  0.00000000E+00
  0.00000000E+00  0.00000000E+00  0.00000000E+00
  0.00000000E+00  0.00000000E+00  0.00000000E+00
  0.00000000E+00  0.00000000E+00  0.00000000E+00
  0.00000000E+00  0.00000000E+00  0.00000000E+00
  0.00000000E+00  0.00000000E+00  0.00000000E+00
  0.00000000E+00  0.00000000E+00  0.00000000E+00
  0.00000000E+00  0.00000000E+00  0.00000000E+00
  0.00000000E+00  0.00000000E+00  0.00000000E+00
  0.00000000E+00  0.00000000E+00  0.00000000E+00
  0.00000000E+00  0.00000000E+00  0.00000000E+00
  0.00000000E+00  0.00000000E+00  0.00000000E+00
  0.00000000E+00  0.00000000E+00  0.00000000E+00
  0.00000000E+00  0.00000000E+00  0.00000000E+00
  0.00000000E+00  0.00000000E+00  0.00000000E+00
  0.00000000E+00  0.00000000E+00  0.00000000E+00
  0.00000000E+00  0.00000000E+00  0.00000000E+00
  0.00000000E+00  0.00000000E+00  0.00000000E+00
  0.00000000E+00  0.00000000E+00  0.00000000E+00
  0.00000000E+00  0.00000000E+00  0.00000000E+00
  0.00000000E+00  0.00000000E+00  0.00000000E+00
  0.00000000E+00  0.00000000E+00  0.00000000E+00
  0.00000000E+00  0.00000000E+00  0.00000000E+00
  0.00000000E+00  0.00000000E+00  0.00000000E+00
  0.00000000E+00  0.00000000E+00  0.00000000E+00
  0.00000000E+00  0.00000000E+00  0.00000000E+00
  0.00000000E+00  0.00000000E+00  0.00000000E+00
  0.00000000E+00  0.00000000E+00  0.00000000E+00
  0.00000000E+00  0.00000000E+00  0.00000000E+00
  0.00000000E+00  0.00000000E+00  0.00000000E+00
  0.00000000E+00  0.00000000E+00  0.00000000E+00
  0.00000000E+00  0.00000000E+00  0.00000000E+00
  0.00000000E+00  0.00000000E+00  0.00000000E+00
  0.00000000E+00  0.00000000E+00  0.00000000E+00
  0.00000000E+00  0.00000000E+00  0.00000000E+00
  0.00000000E+00  0.00000000E+00  0.00000000E+00
  0.00000000E+00  0.00000000E+00  0.00000000E+00
  0.00000000E+00  0.00000000E+00  0.00000000E+00
  0.00000000E+00  0.00000000E+00  0.00000000E+00
  0.00000000E+00  0.00000000E+00  0.00000000E+00
  0.00000000E+00  0.00000000E+00  0.00000000E+00
  0.00000000E+00  0.00000000E+00  0.00000000E+00
  0.00000000E+00  0.00000000E+00  0.00000000E+00
  0.00000000E+00  0.00000000E+00  0.00000000E+00
  0.00000000E+00  0.00000000E+00  0.00000000E+00
  0.00000000E+00  0.00000000E+00  0.00000000E+00
  0.00000000E+00  0.00000000E+00  0.00000000E+00
  0.00000000E+00  0.00000000E+00  0.00000000E+00
  0.00000000E+00  0.00000000E+00  0.00000000E+00
  0.00000000E+00  0.00000000E+00  0.00000000E+00
  0.00000000E+00  0.00000000E+00  0.00000000E+00
  0.00000000E+00  0.00000000E+00  0.00000000E+00
  0.00000000E+00  0.00000000E+00  0.00000000E+00
  0.00000000E+00  0.00000000E+00  0.00000000E+00
  0.00000000E+00  0.00000000E+00  0.00000000E+00
  0.00000000E+00  0.00000000E+00  0.00000000E+00
  0.00000000E+00  0.00000000E+00  0.00000000E+00
  0.00000000E+00  0.00000000E+00  0.00000000E+00
  0.00000000E+00  0.00000000E+00  0.00000000E+00
  0.00000000E+00  0.00000000E+00  0.00000000E+00
  0.00000000E+00  0.00000000E+00  0.00000000E+00
  0.00000000E+00  0.00000000E+00  0.00000000E+00
