Primitive Cell                          
   1.00000000000000     
    14.6927135119968479   -0.0004780964436086    0.0000000000000000
    -7.3467749810303546   12.7327795024403194    0.0000000000000000
     0.0000000000000000    0.0000000000000000   20.0000000000000107
   C    H    N 
    27    18     6
Direct
  0.2233024297981387  0.6182987956886663  0.5134057385610475
  0.2858837543119748  0.7281054747013158  0.5132912174196704
  0.3962386359402430  0.7783741765212042  0.5133069993895560
  0.4435271052880552  0.7157934077283983  0.5130227539631562
  0.3834701766541002  0.6054930420399458  0.5130896824521685
  0.2736265688725439  0.5582989570538288  0.5131555330334692
  0.7776567051599201  0.3918591967452798  0.5052722090786261
  0.7253716448278382  0.2819146065308473  0.5053115790880796
  0.6153892781664752  0.2237670787583994  0.5052346516176343
  0.5576601758156770  0.2760412151832696  0.5048760220206177
  0.6094847948442279  0.3859551516703235  0.5048148107915651
  0.7194798933612034  0.4436623778617914  0.5049071592986039
  0.4036809167351336  0.4469340585804673  0.5460133459988654
  0.4373439277680049  0.5432050950008147  0.5119364745336696
  0.5485805467113707  0.4413375050595860  0.5062827338832960
  0.3090033570982698  0.3950323785588594  0.5909044609841843
  0.5548142114828991  0.9571470212315205  0.5463137387615404
  0.4583453068244125  0.8945138759038329  0.5123960816691380
  0.5599769013409599  0.1075323381898770  0.5069277310162406
  0.6068412107398231  0.9143612488209527  0.5910960827408758
  0.0443218055151604  0.5978496452003625  0.5464683148607037
  0.1071035691872666  0.5641759677703249  0.5125501022035124
  0.8939500076812195  0.4526439643459952  0.5070613485427060
  0.0869911775560723  0.6926274944487147  0.5912235719823187
  0.5315340077910520  0.5807772191030764  0.4757057906803226
  0.4202664035802215  0.9510748137692318  0.4766181680481409
  0.0505802946327734  0.4694969727509957  0.4768599627534158
  0.5288025637938816  0.7531972599110190  0.5127679756054988
  0.2257897556562156  0.4730881825339708  0.5129753683334854
  0.2484270353803382  0.7759033766416010  0.5131953236725337
  0.4721026316776289  0.2310739702355775  0.5050402892526122
  0.7599196114379865  0.5291786396810636  0.5051317703260167
  0.7705012726702094  0.2414993847931726  0.5058025021158130
  0.2935795200095512  0.4521713294323959  0.6162306680508678
  0.3214259295897364  0.3472707271280555  0.6278735040757297
  0.2380351692279916  0.3415529263182293  0.5622954543377645
  0.5496875091734026  0.8417670322215827  0.6163780695049041
  0.6545873986029207  0.9744500586872746  0.6281207240667470
  0.6603514958218639  0.8969879607310745  0.5624116952252081
  0.1596238489566062  0.7082036798465339  0.6165848677303458
  0.0267615882970631  0.6802604166069059  0.6281741070327769
  0.1042931760149060  0.7633962357851090  0.5624637357539370
  0.5614375068804236  0.6531409611268515  0.4464934654917343
  0.3476073298370537  0.9086671215983841  0.4476588371956396
  0.0930294281240052  0.4392303820133350  0.4479585361156708
  0.4585801433614307  0.3965884503753614  0.5413913228058433
  0.6051030348621538  0.0623610657809692  0.5417358683854872
  0.9390539329907526  0.5429019878484809  0.5418465710542577
  0.5886370199014337  0.5334639405726946  0.4733052301642857
  0.4674269253655794  0.0554239677134305  0.4743576613023492
  0.9461983646818126  0.4122248631990360  0.4746331321473605
 
  0.00000000E+00  0.00000000E+00  0.00000000E+00
  0.00000000E+00  0.00000000E+00  0.00000000E+00
  0.00000000E+00  0.00000000E+00  0.00000000E+00
  0.00000000E+00  0.00000000E+00  0.00000000E+00
  0.00000000E+00  0.00000000E+00  0.00000000E+00
  0.00000000E+00  0.00000000E+00  0.00000000E+00
  0.00000000E+00  0.00000000E+00  0.00000000E+00
  0.00000000E+00  0.00000000E+00  0.00000000E+00
  0.00000000E+00  0.00000000E+00  0.00000000E+00
  0.00000000E+00  0.00000000E+00  0.00000000E+00
  0.00000000E+00  0.00000000E+00  0.00000000E+00
  0.00000000E+00  0.00000000E+00  0.00000000E+00
  0.00000000E+00  0.00000000E+00  0.00000000E+00
  0.00000000E+00  0.00000000E+00  0.00000000E+00
  0.00000000E+00  0.00000000E+00  0.00000000E+00
  0.00000000E+00  0.00000000E+00  0.00000000E+00
  0.00000000E+00  0.00000000E+00  0.00000000E+00
  0.00000000E+00  0.00000000E+00  0.00000000E+00
  0.00000000E+00  0.00000000E+00  0.00000000E+00
  0.00000000E+00  0.00000000E+00  0.00000000E+00
  0.00000000E+00  0.00000000E+00  0.00000000E+00
  0.00000000E+00  0.00000000E+00  0.00000000E+00
  0.00000000E+00  0.00000000E+00  0.00000000E+00
  0.00000000E+00  0.00000000E+00  0.00000000E+00
  0.00000000E+00  0.00000000E+00  0.00000000E+00
  0.00000000E+00  0.00000000E+00  0.00000000E+00
  0.00000000E+00  0.00000000E+00  0.00000000E+00
  0.00000000E+00  0.00000000E+00  0.00000000E+00
  0.00000000E+00  0.00000000E+00  0.00000000E+00
  0.00000000E+00  0.00000000E+00  0.00000000E+00
  0.00000000E+00  0.00000000E+00  0.00000000E+00
  0.00000000E+00  0.00000000E+00  0.00000000E+00
  0.00000000E+00  0.00000000E+00  0.00000000E+00
  0.00000000E+00  0.00000000E+00  0.00000000E+00
  0.00000000E+00  0.00000000E+00  0.00000000E+00
  0.00000000E+00  0.00000000E+00  0.00000000E+00
  0.00000000E+00  0.00000000E+00  0.00000000E+00
  0.00000000E+00  0.00000000E+00  0.00000000E+00
  0.00000000E+00  0.00000000E+00  0.00000000E+00
  0.00000000E+00  0.00000000E+00  0.00000000E+00
  0.00000000E+00  0.00000000E+00  0.00000000E+00
  0.00000000E+00  0.00000000E+00  0.00000000E+00
  0.00000000E+00  0.00000000E+00  0.00000000E+00
  0.00000000E+00  0.00000000E+00  0.00000000E+00
  0.00000000E+00  0.00000000E+00  0.00000000E+00
  0.00000000E+00  0.00000000E+00  0.00000000E+00
  0.00000000E+00  0.00000000E+00  0.00000000E+00
  0.00000000E+00  0.00000000E+00  0.00000000E+00
  0.00000000E+00  0.00000000E+00  0.00000000E+00
  0.00000000E+00  0.00000000E+00  0.00000000E+00
  0.00000000E+00  0.00000000E+00  0.00000000E+00
