Primitive Cell                          
   1.00000000000000     
    21.4489687862838494   -0.0104689222637100    0.0000000000000000
   -10.7336015680037917   18.5813345951820672    0.0000000000000000
     0.0000000000000000    0.0000000000000000   20.0000000000000000
   N    H    O    C 
    18    24     6    30
Direct
  0.4039431627056018  0.6826772004717014  0.5452349106649024
  0.2776995371720332  0.6017023675081035  0.5462142197195305
  0.3230196810818668  0.7278685947594425  0.5451555318964481
  0.5988607973548525  0.3261602330996212  0.4604160699676001
  0.7252529431505934  0.4063959386711744  0.4601283646946897
  0.6790593088400669  0.2801330342104507  0.4616387028327793
  0.0418972494256167  0.5779320969971309  0.4983046453722579
  0.8583045998586201  0.4324601706329432  0.4733216692141227
  0.4272160096371280  0.4705426470014444  0.4976731886959342
  0.5725785815637607  0.4325754068501411  0.4720648088352348
  0.5357029705154090  0.9642134126879114  0.4983246027835548
  0.5729497983932532  0.1474377764967514  0.4735701441858708
  0.9609633408972442  0.4284500785163843  0.5084956577702044
  0.1444627457889212  0.5742226532252062  0.5339974434070669
  0.5768486490148703  0.5395004344139949  0.5066605509409570
  0.4311653121603314  0.5769221944030889  0.5331550801253258
  0.4661873424696665  0.0442637715797574  0.5078541187281047
  0.4290233462815536  0.8610771516996607  0.5329126265691428
  0.8960752609886526  0.5817874511774974  0.4924661710457983
  0.9814533177667499  0.6443916415451980  0.4579938575483666
  0.9161872855276840  0.5712618830784635  0.4088022803110647
  0.8348487658446047  0.4637033958509562  0.4689141951496367
  0.4232206820792186  0.3208623814283840  0.4917572618363835
  0.3605157399810253  0.3435556932629993  0.4574964949336291
  0.4335551459219218  0.3514687799787595  0.4080898951879206
  0.5415525226396696  0.3776724337549169  0.4696189878697936
  0.6850383132390121  0.1109703439336727  0.4932435633041834
  0.6632403216392362  0.0257378432466524  0.4591361956358782
  0.6548138974753641  0.0903331751840710  0.4094968327530424
  0.6278295590837217  0.1715000574469911  0.4702658370902810
  0.1069320727376066  0.4248223622133551  0.5147477553187727
  0.0863675824740753  0.4351150668656771  0.5983057820721100
  0.0214214884082082  0.3620267491259384  0.5488705658735924
  0.1684935768555746  0.5434267400827864  0.5374329907176403
  0.5801250667423332  0.6889548722272920  0.5122358416654365
  0.5711173847893178  0.6589391407340983  0.5960011042462696
  0.6436188250878274  0.6669193480353997  0.5457480558766008
  0.4619419186292504  0.6318061169772733  0.5362475196139727
  0.3170351979948691  0.8975201831707764  0.5118082340284289
  0.3462300564783192  0.9177084762006800  0.5958720897503866
  0.3383829449023494  0.9825500704385917  0.5460880237948089
  0.3741223468267663  0.8369556829936471  0.5361267600320332
  0.1798042296503866  0.6962296546281195  0.5454402224932906
  0.5156590601751745  0.8257033323765413  0.5446027285438362
  0.3091475277208175  0.4901693251647217  0.5451348747391407
  0.8211843312996407  0.3097572275760356  0.4652924564586698
  0.4865058140538991  0.1832365735455852  0.4631310976499563
  0.6943801415920703  0.5187018931044847  0.4575724387387652
  0.3459344744375557  0.6161757449546741  0.5455381813142566
  0.2691927976363999  0.6596497299569677  0.5455959117934981
  0.3587452223644689  0.5523823647767401  0.5416575218474975
  0.1924558444810742  0.6466928644597658  0.5420572134141182
  0.4534500994521053  0.8131162639586904  0.5411583805432301
  0.6571917953732367  0.3924755996711156  0.4599931234780783
  0.7332444090938637  0.3481324326015667  0.4615158847424325
  0.6447891937292454  0.4566435487686888  0.4626479777200245
  0.8095603182665627  0.3600565284774575  0.4665368482951493
  0.5486548229721748  0.1955541218132950  0.4657117099118651
  0.9317043868000070  0.4673695949158727  0.4880564553655731
  0.9720949079596082  0.5435148718571341  0.4825825213903059
  0.9396020677692789  0.5875037391877740  0.4591668602972234
  0.5377552205917340  0.4711360042832879  0.4866463579721270
  0.4615460188432436  0.4351994150443090  0.4817118359101542
  0.4174150388444104  0.3586272980043361  0.4584936247329523
  0.5346782114086750  0.0740041662299262  0.4880379793452789
  0.5708978679127057  0.0340619407788694  0.4828737685614044
  0.6476505447056695  0.0671458100285562  0.4599571558162481
  0.3895421326278807  0.7364447957374907  0.5449489448075653
  0.6127536126471611  0.2720616621493548  0.4613517044646187
  0.0632097155580738  0.4189328898969435  0.5478528902358946
  0.0307425878276035  0.4629018249334464  0.5243657674416866
  0.0710987225756554  0.5390518399910604  0.5190260413816219
  0.5866364662000407  0.6515669030194999  0.5453964828097142
  0.5424962447698505  0.5748480112036702  0.5225991187523746
  0.4662590633549470  0.5387966806333395  0.5179362141496213
  0.3539888824204809  0.9411536353163754  0.5454797346655837
  0.4309618107350985  0.9743764641290653  0.5232022685763056
  0.4672467637244324  0.9344991946462642  0.5182839016551739
 
  0.00000000E+00  0.00000000E+00  0.00000000E+00
  0.00000000E+00  0.00000000E+00  0.00000000E+00
  0.00000000E+00  0.00000000E+00  0.00000000E+00
  0.00000000E+00  0.00000000E+00  0.00000000E+00
  0.00000000E+00  0.00000000E+00  0.00000000E+00
  0.00000000E+00  0.00000000E+00  0.00000000E+00
  0.00000000E+00  0.00000000E+00  0.00000000E+00
  0.00000000E+00  0.00000000E+00  0.00000000E+00
  0.00000000E+00  0.00000000E+00  0.00000000E+00
  0.00000000E+00  0.00000000E+00  0.00000000E+00
  0.00000000E+00  0.00000000E+00  0.00000000E+00
  0.00000000E+00  0.00000000E+00  0.00000000E+00
  0.00000000E+00  0.00000000E+00  0.00000000E+00
  0.00000000E+00  0.00000000E+00  0.00000000E+00
  0.00000000E+00  0.00000000E+00  0.00000000E+00
  0.00000000E+00  0.00000000E+00  0.00000000E+00
  0.00000000E+00  0.00000000E+00  0.00000000E+00
  0.00000000E+00  0.00000000E+00  0.00000000E+00
  0.00000000E+00  0.00000000E+00  0.00000000E+00
  0.00000000E+00  0.00000000E+00  0.00000000E+00
  0.00000000E+00  0.00000000E+00  0.00000000E+00
  0.00000000E+00  0.00000000E+00  0.00000000E+00
  0.00000000E+00  0.00000000E+00  0.00000000E+00
  0.00000000E+00  0.00000000E+00  0.00000000E+00
  0.00000000E+00  0.00000000E+00  0.00000000E+00
  0.00000000E+00  0.00000000E+00  0.00000000E+00
  0.00000000E+00  0.00000000E+00  0.00000000E+00
  0.00000000E+00  0.00000000E+00  0.00000000E+00
  0.00000000E+00  0.00000000E+00  0.00000000E+00
  0.00000000E+00  0.00000000E+00  0.00000000E+00
  0.00000000E+00  0.00000000E+00  0.00000000E+00
  0.00000000E+00  0.00000000E+00  0.00000000E+00
  0.00000000E+00  0.00000000E+00  0.00000000E+00
  0.00000000E+00  0.00000000E+00  0.00000000E+00
  0.00000000E+00  0.00000000E+00  0.00000000E+00
  0.00000000E+00  0.00000000E+00  0.00000000E+00
  0.00000000E+00  0.00000000E+00  0.00000000E+00
  0.00000000E+00  0.00000000E+00  0.00000000E+00
  0.00000000E+00  0.00000000E+00  0.00000000E+00
  0.00000000E+00  0.00000000E+00  0.00000000E+00
  0.00000000E+00  0.00000000E+00  0.00000000E+00
  0.00000000E+00  0.00000000E+00  0.00000000E+00
  0.00000000E+00  0.00000000E+00  0.00000000E+00
  0.00000000E+00  0.00000000E+00  0.00000000E+00
  0.00000000E+00  0.00000000E+00  0.00000000E+00
  0.00000000E+00  0.00000000E+00  0.00000000E+00
  0.00000000E+00  0.00000000E+00  0.00000000E+00
  0.00000000E+00  0.00000000E+00  0.00000000E+00
  0.00000000E+00  0.00000000E+00  0.00000000E+00
  0.00000000E+00  0.00000000E+00  0.00000000E+00
  0.00000000E+00  0.00000000E+00  0.00000000E+00
  0.00000000E+00  0.00000000E+00  0.00000000E+00
  0.00000000E+00  0.00000000E+00  0.00000000E+00
  0.00000000E+00  0.00000000E+00  0.00000000E+00
  0.00000000E+00  0.00000000E+00  0.00000000E+00
  0.00000000E+00  0.00000000E+00  0.00000000E+00
  0.00000000E+00  0.00000000E+00  0.00000000E+00
  0.00000000E+00  0.00000000E+00  0.00000000E+00
  0.00000000E+00  0.00000000E+00  0.00000000E+00
  0.00000000E+00  0.00000000E+00  0.00000000E+00
  0.00000000E+00  0.00000000E+00  0.00000000E+00
  0.00000000E+00  0.00000000E+00  0.00000000E+00
  0.00000000E+00  0.00000000E+00  0.00000000E+00
  0.00000000E+00  0.00000000E+00  0.00000000E+00
  0.00000000E+00  0.00000000E+00  0.00000000E+00
  0.00000000E+00  0.00000000E+00  0.00000000E+00
  0.00000000E+00  0.00000000E+00  0.00000000E+00
  0.00000000E+00  0.00000000E+00  0.00000000E+00
  0.00000000E+00  0.00000000E+00  0.00000000E+00
  0.00000000E+00  0.00000000E+00  0.00000000E+00
  0.00000000E+00  0.00000000E+00  0.00000000E+00
  0.00000000E+00  0.00000000E+00  0.00000000E+00
  0.00000000E+00  0.00000000E+00  0.00000000E+00
  0.00000000E+00  0.00000000E+00  0.00000000E+00
  0.00000000E+00  0.00000000E+00  0.00000000E+00
  0.00000000E+00  0.00000000E+00  0.00000000E+00
  0.00000000E+00  0.00000000E+00  0.00000000E+00
  0.00000000E+00  0.00000000E+00  0.00000000E+00
