Primitive Cell                          
   1.00000000000000     
    21.4680851898390905   -0.0760043997286618    0.0000000000000000
   -10.7998482969259513   18.6191443029661450    0.0000000000000000
     0.0000000000000000    0.0000000000000000   20.0000000000000000
   C    N    O    H 
    30    24     6     6
Direct
  0.3829349349193123  0.6526110938627951  0.4511015684263668
  0.3419989949955919  0.7307444084636145  0.4505676558858553
  0.4457769080542135  0.6386385041735494  0.4561601642835384
  0.3560166682556414  0.8074738536814934  0.4556504376977131
  0.1856099858714373  0.5483028887530210  0.4544662036870051
  0.6076833023127932  0.3443742126133742  0.5470449035446308
  0.6481782524830066  0.2658558365570514  0.5479837445870075
  0.5451188319500702  0.3587634670557236  0.5421774179503132
  0.6334895849789604  0.1887817644269063  0.5447536243475497
  0.8047705681608406  0.4482655943237148  0.5419905997532624
  0.5286396188215576  0.0685391781291926  0.5180327176198460
  0.4527145770240892  0.0218039942933430  0.5255681737279545
  0.4094368705488876  0.0486677480600335  0.5535267108986730
  0.5311815731498939  0.4640089499462619  0.5161164227692154
  0.5616406316732139  0.5397597977501434  0.5242530646036982
  0.6321317386813945  0.5818429798402818  0.5527537969428593
  0.9247391250138648  0.4630061930482938  0.5160505284960522
  0.9703378184495079  0.4330890266632252  0.5240908759284224
  0.9422286747357447  0.3631968262448098  0.5532311374022783
  0.2630697295509279  0.6111032607360514  0.4501087212746810
  0.7274382426953139  0.3853948873207074  0.5470271371429476
  0.5366228063225762  0.9746829866199960  0.4743763060722515
  0.4607241860330404  0.9278990019485533  0.4820612577578700
  0.5795634506410892  0.9478499491153158  0.4456040158907726
  0.4296449167157945  0.4575382865063204  0.4726499908744444
  0.4600871528148431  0.5333045526194979  0.4808857873427073
  0.3591952037566486  0.4150451040297867  0.4441268267069916
  0.0198659464427990  0.5638409117253147  0.4709086860694356
  0.0655221067087624  0.5339629074702543  0.4791318069028989
  0.0478873755552129  0.6336248265530173  0.4414913575912180
  0.3159135582495409  0.5953981898418235  0.4506124515124768
  0.3991342104715940  0.7213238712666055  0.4508518935767469
  0.2730602518076068  0.6777859808386708  0.4496560149030842
  0.6747980368264592  0.4013701840619106  0.5471103942318791
  0.5912459376962076  0.2756117535783389  0.5477050987122283
  0.7172675406389857  0.3186039784491683  0.5477653820024528
  0.4201010767249116  0.9526460035766391  0.5076837368448039
  0.3783964285171066  0.0749934758782373  0.5769938575190636
  0.5604075033049867  0.1405768458094983  0.5350502509245487
  0.5259817362589843  0.5731368278974927  0.5066704466830814
  0.6896109177657621  0.6114779956131073  0.5768041225053082
  0.5708006138659982  0.4317711761389447  0.5331291828717752
  0.0395225995454496  0.4687035505769117  0.5057599863405926
  0.9148349788802150  0.3061244410980919  0.5777415383628721
  0.8526919143147467  0.4233287280824314  0.5339187275773369
  0.5692632507262658  0.0437698709852725  0.4924139022020739
  0.6098689439795493  0.9212590539627001  0.4211348748222790
  0.4290905221889005  0.8559662497762517  0.4647241270834286
  0.4653458847689009  0.4242045607298977  0.4902450289416578
  0.3016967205903427  0.3842722916773553  0.4201759346954788
  0.4204429026067302  0.5655638419101834  0.4640727257178838
  0.9506456044174953  0.5282477338284508  0.4894074323558684
  0.0750827247586017  0.6905983536507705  0.4167583493991032
  0.1376930016907565  0.5734574970442097  0.4616199539519812
  0.3073728737655088  0.8209342492847327  0.4530388984240616
  0.1711399697869354  0.4858617034529615  0.4529291882192084
  0.5084190090677083  0.6871598530581267  0.4543025692360416
  0.6815948252233355  0.1747193232808186  0.5493851515537145
  0.8191352740401143  0.5106693909843329  0.5439600912427451
  0.4823656678980868  0.3106243640270492  0.5451077171453989
  0.5279462934936348  0.1624994877418473  0.5403821167486100
  0.6255320371975870  0.4639111509517804  0.5390388725221484
  0.8302265641848550  0.3688979632170941  0.5405539436078186
  0.4617422256706050  0.8343408014417051  0.4586915378907150
  0.3658023871792295  0.5333016323078965  0.4576246910392570
  0.1604592345793279  0.6279266314470178  0.4550142396138384
 
  0.00000000E+00  0.00000000E+00  0.00000000E+00
  0.00000000E+00  0.00000000E+00  0.00000000E+00
  0.00000000E+00  0.00000000E+00  0.00000000E+00
  0.00000000E+00  0.00000000E+00  0.00000000E+00
  0.00000000E+00  0.00000000E+00  0.00000000E+00
  0.00000000E+00  0.00000000E+00  0.00000000E+00
  0.00000000E+00  0.00000000E+00  0.00000000E+00
  0.00000000E+00  0.00000000E+00  0.00000000E+00
  0.00000000E+00  0.00000000E+00  0.00000000E+00
  0.00000000E+00  0.00000000E+00  0.00000000E+00
  0.00000000E+00  0.00000000E+00  0.00000000E+00
  0.00000000E+00  0.00000000E+00  0.00000000E+00
  0.00000000E+00  0.00000000E+00  0.00000000E+00
  0.00000000E+00  0.00000000E+00  0.00000000E+00
  0.00000000E+00  0.00000000E+00  0.00000000E+00
  0.00000000E+00  0.00000000E+00  0.00000000E+00
  0.00000000E+00  0.00000000E+00  0.00000000E+00
  0.00000000E+00  0.00000000E+00  0.00000000E+00
  0.00000000E+00  0.00000000E+00  0.00000000E+00
  0.00000000E+00  0.00000000E+00  0.00000000E+00
  0.00000000E+00  0.00000000E+00  0.00000000E+00
  0.00000000E+00  0.00000000E+00  0.00000000E+00
  0.00000000E+00  0.00000000E+00  0.00000000E+00
  0.00000000E+00  0.00000000E+00  0.00000000E+00
  0.00000000E+00  0.00000000E+00  0.00000000E+00
  0.00000000E+00  0.00000000E+00  0.00000000E+00
  0.00000000E+00  0.00000000E+00  0.00000000E+00
  0.00000000E+00  0.00000000E+00  0.00000000E+00
  0.00000000E+00  0.00000000E+00  0.00000000E+00
  0.00000000E+00  0.00000000E+00  0.00000000E+00
  0.00000000E+00  0.00000000E+00  0.00000000E+00
  0.00000000E+00  0.00000000E+00  0.00000000E+00
  0.00000000E+00  0.00000000E+00  0.00000000E+00
  0.00000000E+00  0.00000000E+00  0.00000000E+00
  0.00000000E+00  0.00000000E+00  0.00000000E+00
  0.00000000E+00  0.00000000E+00  0.00000000E+00
  0.00000000E+00  0.00000000E+00  0.00000000E+00
  0.00000000E+00  0.00000000E+00  0.00000000E+00
  0.00000000E+00  0.00000000E+00  0.00000000E+00
  0.00000000E+00  0.00000000E+00  0.00000000E+00
  0.00000000E+00  0.00000000E+00  0.00000000E+00
  0.00000000E+00  0.00000000E+00  0.00000000E+00
  0.00000000E+00  0.00000000E+00  0.00000000E+00
  0.00000000E+00  0.00000000E+00  0.00000000E+00
  0.00000000E+00  0.00000000E+00  0.00000000E+00
  0.00000000E+00  0.00000000E+00  0.00000000E+00
  0.00000000E+00  0.00000000E+00  0.00000000E+00
  0.00000000E+00  0.00000000E+00  0.00000000E+00
  0.00000000E+00  0.00000000E+00  0.00000000E+00
  0.00000000E+00  0.00000000E+00  0.00000000E+00
  0.00000000E+00  0.00000000E+00  0.00000000E+00
  0.00000000E+00  0.00000000E+00  0.00000000E+00
  0.00000000E+00  0.00000000E+00  0.00000000E+00
  0.00000000E+00  0.00000000E+00  0.00000000E+00
  0.00000000E+00  0.00000000E+00  0.00000000E+00
  0.00000000E+00  0.00000000E+00  0.00000000E+00
  0.00000000E+00  0.00000000E+00  0.00000000E+00
  0.00000000E+00  0.00000000E+00  0.00000000E+00
  0.00000000E+00  0.00000000E+00  0.00000000E+00
  0.00000000E+00  0.00000000E+00  0.00000000E+00
  0.00000000E+00  0.00000000E+00  0.00000000E+00
  0.00000000E+00  0.00000000E+00  0.00000000E+00
  0.00000000E+00  0.00000000E+00  0.00000000E+00
  0.00000000E+00  0.00000000E+00  0.00000000E+00
  0.00000000E+00  0.00000000E+00  0.00000000E+00
  0.00000000E+00  0.00000000E+00  0.00000000E+00
