Primitive Cell                          
   1.00000000000000     
    21.9476110812874232    0.0000000247604458    0.0000000000000000
   -10.9738055620869019   19.0071887363955625    0.0000000000000000
     0.0000000000000000    0.0000000000000000   20.0000000000000000
   N    H    C 
     6    48    54
Direct
  0.6304257393233641  0.2608464597020514  0.4941970464649970
  0.6304207203786802  0.3695742606766217  0.4941970464649970
  0.7391535402979486  0.3695792796213198  0.4941970464649970
  0.0361803205556228  0.0725395327431428  0.4937255043016009
  0.0363592121875200  0.9638196794443772  0.4937255043016009
  0.9274604672568572  0.9636407878124800  0.4937255043016009
  0.5123719104784783  0.3355009762775296  0.4316445051184772
  0.3326463355324876  0.1081598476283503  0.3738598025344828
  0.3313919840890875  0.2811770964145310  0.4420264608813582
  0.4072333340328953  0.3251908182302614  0.3901972086536105
  0.5122908006479889  0.1768988078857987  0.5573302261127395
  0.3314040809016063  0.2245345459905081  0.6154330001637689
  0.3309357239924822  0.0507209096263281  0.5475919079314338
  0.4070757620698231  0.0822306826949344  0.5989673190709084
  0.6644990237224704  0.1768709342009487  0.4316445051184772
  0.7188229035854690  0.0502148876745636  0.4420264608813582
  0.6646080072378027  0.4877091993520040  0.5573302261127395
  0.7197851856338460  0.6690642760075178  0.5475919079314338
  0.8231290657990513  0.4876280895215075  0.4316445051184772
  0.8480623335711783  0.8453110613214108  0.4246215575068106
  0.7755135120958627  0.6673536644675195  0.3738598025344828
  0.7604704216843885  0.7399301862374870  0.3754105106869474
  0.7190921334251570  0.6704738116888365  0.4345422407779651
  0.9497851123254364  0.6686080159109125  0.4420264608813582
  0.8952752750706026  0.6585770366858696  0.3735110221733322
  0.9179574841973732  0.5927666659671118  0.3901972086536105
  0.9972487277502182  0.1519376664288217  0.4246215575068106
  0.8918401523716568  0.2244864879041373  0.3738598025344828
  0.9794597645530985  0.2395295783156115  0.3754105106869474
  0.9513816782636866  0.2809078665748430  0.4345422407779651
  0.7633017616152600  0.1047247249294045  0.3735110221733322
  0.6748091817697315  0.0820425158026268  0.3901972086536105
  0.1546889386785892  0.0027512722497747  0.4246215575068106
  0.2600698137625130  0.0205402354469015  0.3754105106869474
  0.3295261883111635  0.0486183217363134  0.4345422407779651
  0.3414229633141233  0.2366982383847400  0.3735110221733322
  0.9979328393087243  0.8460055630350283  0.5631215945449881
  0.8931304650888947  0.6685959190983937  0.6154330001637689
  0.9806895458458058  0.7412229582715710  0.6130228007865384
  0.9522503249120220  0.6711619238523454  0.5545581467738003
  0.7637138684596536  0.6582355174249699  0.6161090780803136
  0.6751549206251042  0.5929242379301769  0.5989673190709084
  0.8480727237262968  0.0020671606912757  0.5631215945449881
  0.8231011921142013  0.3353919927621973  0.5573302261127395
  0.7754654540094919  0.1068695349111053  0.6154330001637689
  0.7605334124257652  0.0193104541541942  0.6130228007865384
  0.7189115989403234  0.0477496750879780  0.5545581467738003
  0.9492790903736719  0.2802148143661540  0.5475919079314338
  0.8945216489653092  0.2362861315403464  0.6161090780803136
  0.9177693173050656  0.3248450793748958  0.5989673190709084
  0.1539944369649717  0.1519272762737032  0.5631215945449881
  0.2587770417284290  0.2394665875742348  0.6130228007865384
  0.3288380761476546  0.2810884010596766  0.5545581467738003
  0.3417644825750301  0.1054783510346908  0.6161090780803136
  0.3725439791241598  0.1864817718975260  0.4946574083340209
  0.4094315031053739  0.2489042932465679  0.4567867434186752
  0.4828973067400710  0.2861192048383003  0.4589655362447616
  0.3706115076838685  0.2746370453259956  0.4135758018196114
  0.4828571174861978  0.1969231925698764  0.5301093287599556
  0.4093876321894498  0.1608526133162300  0.5324743428727601
  0.3705318245602243  0.0964179081378305  0.5758378113847797
  0.5976400029150426  0.2988052367078282  0.4942704402719471
  0.5199151392520136  0.2599786603025933  0.4944573309301816
  0.7011947632921718  0.2988347662072073  0.4942704402719471
  0.7011652337927927  0.4023599970849574  0.4942704402719471
  0.9654073295943277  0.0344178918871521  0.4937294070379679
  0.0690105622928243  0.0345926704056723  0.4937294070379679
  0.9655821081128479  0.9309894377071757  0.4937294070379679
  0.8139377927733591  0.6274560208758402  0.4946574083340209
  0.8394727901411940  0.5905684968946332  0.4567867434186752
  0.8032218980982293  0.5171026932599219  0.4589655362447616
  0.8531640512887293  0.7059219545472004  0.4944909317157951
  0.9267618874393833  0.8532275095531645  0.4938833152083859
  0.8661463945246766  0.8160413761199692  0.4548747965816915
  0.8301754745550554  0.7425557473317710  0.4529537926983309
  0.7681677087135270  0.7033252676752824  0.4068045153732385
  0.9040255376421271  0.6293884923161315  0.4135758018196114
  0.8135182281024740  0.1860622072266409  0.4946574083340209
  0.7510957067534321  0.1605272098588060  0.4567867434186752
  0.7138807951616997  0.1967781019017707  0.4589655362447616
  0.8527579032584711  0.1468359487112707  0.4944909317157951
  0.9264656221137813  0.0732381125606167  0.4938833152083859
  0.9498949815952855  0.1338536054753305  0.4548747965816915
  0.9123802727767227  0.1698245254449446  0.4529537926983309
  0.9351575589617553  0.2318322912864730  0.4068045153732385
  0.7253629546740044  0.0959744623578729  0.4135758018196114
  0.2940780454527996  0.1472420967415289  0.4944909317157951
  0.1467724904468355  0.0735343778862187  0.4938833152083859
  0.1839586238800379  0.0501050184047145  0.4548747965816915
  0.2574442526682290  0.0876197272232773  0.4529537926983309
  0.2966747323247176  0.0648424410382447  0.4068045153732385
  0.7400635210505797  0.4800848607479864  0.4944573309301816
  0.7140660750836787  0.5171428825138022  0.5301093287599556
  0.7514649811267731  0.5906123678105502  0.5324743428727601
  0.9129982213675376  0.7429570227612246  0.5356745745815914
  0.9504206611314743  0.8164218170798989  0.5331539238118310
  0.9361612885879182  0.7042448335904368  0.5820673097303413
  0.7258860835775991  0.6294681754397757  0.5758378113847797
  0.7400213396974067  0.2599364789494203  0.4944573309301816
  0.8030768074301236  0.2859339249163213  0.5301093287599556
  0.8391473866837700  0.2485350188732269  0.5324743428727601
  0.8299588013936940  0.0870017786324695  0.5356745745815914
  0.8660011559484246  0.0495793388685257  0.5331539238118310
  0.7680835450025185  0.0638387114120818  0.5820673097303413
  0.9035820918621695  0.2741139164224009  0.5758378113847797
  0.2570429772387754  0.1700411986063060  0.5356745745815914
  0.1835781829201011  0.1339988440515754  0.5331539238118310
  0.2957551664095632  0.2319164549974815  0.5820673097303413
 
  0.00000000E+00  0.00000000E+00  0.00000000E+00
  0.00000000E+00  0.00000000E+00  0.00000000E+00
  0.00000000E+00  0.00000000E+00  0.00000000E+00
  0.00000000E+00  0.00000000E+00  0.00000000E+00
  0.00000000E+00  0.00000000E+00  0.00000000E+00
  0.00000000E+00  0.00000000E+00  0.00000000E+00
  0.00000000E+00  0.00000000E+00  0.00000000E+00
  0.00000000E+00  0.00000000E+00  0.00000000E+00
  0.00000000E+00  0.00000000E+00  0.00000000E+00
  0.00000000E+00  0.00000000E+00  0.00000000E+00
  0.00000000E+00  0.00000000E+00  0.00000000E+00
  0.00000000E+00  0.00000000E+00  0.00000000E+00
  0.00000000E+00  0.00000000E+00  0.00000000E+00
  0.00000000E+00  0.00000000E+00  0.00000000E+00
  0.00000000E+00  0.00000000E+00  0.00000000E+00
  0.00000000E+00  0.00000000E+00  0.00000000E+00
  0.00000000E+00  0.00000000E+00  0.00000000E+00
  0.00000000E+00  0.00000000E+00  0.00000000E+00
  0.00000000E+00  0.00000000E+00  0.00000000E+00
  0.00000000E+00  0.00000000E+00  0.00000000E+00
  0.00000000E+00  0.00000000E+00  0.00000000E+00
  0.00000000E+00  0.00000000E+00  0.00000000E+00
  0.00000000E+00  0.00000000E+00  0.00000000E+00
  0.00000000E+00  0.00000000E+00  0.00000000E+00
  0.00000000E+00  0.00000000E+00  0.00000000E+00
  0.00000000E+00  0.00000000E+00  0.00000000E+00
  0.00000000E+00  0.00000000E+00  0.00000000E+00
  0.00000000E+00  0.00000000E+00  0.00000000E+00
  0.00000000E+00  0.00000000E+00  0.00000000E+00
  0.00000000E+00  0.00000000E+00  0.00000000E+00
  0.00000000E+00  0.00000000E+00  0.00000000E+00
  0.00000000E+00  0.00000000E+00  0.00000000E+00
  0.00000000E+00  0.00000000E+00  0.00000000E+00
  0.00000000E+00  0.00000000E+00  0.00000000E+00
  0.00000000E+00  0.00000000E+00  0.00000000E+00
  0.00000000E+00  0.00000000E+00  0.00000000E+00
  0.00000000E+00  0.00000000E+00  0.00000000E+00
  0.00000000E+00  0.00000000E+00  0.00000000E+00
  0.00000000E+00  0.00000000E+00  0.00000000E+00
  0.00000000E+00  0.00000000E+00  0.00000000E+00
  0.00000000E+00  0.00000000E+00  0.00000000E+00
  0.00000000E+00  0.00000000E+00  0.00000000E+00
  0.00000000E+00  0.00000000E+00  0.00000000E+00
  0.00000000E+00  0.00000000E+00  0.00000000E+00
  0.00000000E+00  0.00000000E+00  0.00000000E+00
  0.00000000E+00  0.00000000E+00  0.00000000E+00
  0.00000000E+00  0.00000000E+00  0.00000000E+00
  0.00000000E+00  0.00000000E+00  0.00000000E+00
  0.00000000E+00  0.00000000E+00  0.00000000E+00
  0.00000000E+00  0.00000000E+00  0.00000000E+00
  0.00000000E+00  0.00000000E+00  0.00000000E+00
  0.00000000E+00  0.00000000E+00  0.00000000E+00
  0.00000000E+00  0.00000000E+00  0.00000000E+00
  0.00000000E+00  0.00000000E+00  0.00000000E+00
  0.00000000E+00  0.00000000E+00  0.00000000E+00
  0.00000000E+00  0.00000000E+00  0.00000000E+00
  0.00000000E+00  0.00000000E+00  0.00000000E+00
  0.00000000E+00  0.00000000E+00  0.00000000E+00
  0.00000000E+00  0.00000000E+00  0.00000000E+00
  0.00000000E+00  0.00000000E+00  0.00000000E+00
  0.00000000E+00  0.00000000E+00  0.00000000E+00
  0.00000000E+00  0.00000000E+00  0.00000000E+00
  0.00000000E+00  0.00000000E+00  0.00000000E+00
  0.00000000E+00  0.00000000E+00  0.00000000E+00
  0.00000000E+00  0.00000000E+00  0.00000000E+00
  0.00000000E+00  0.00000000E+00  0.00000000E+00
  0.00000000E+00  0.00000000E+00  0.00000000E+00
  0.00000000E+00  0.00000000E+00  0.00000000E+00
  0.00000000E+00  0.00000000E+00  0.00000000E+00
  0.00000000E+00  0.00000000E+00  0.00000000E+00
  0.00000000E+00  0.00000000E+00  0.00000000E+00
  0.00000000E+00  0.00000000E+00  0.00000000E+00
  0.00000000E+00  0.00000000E+00  0.00000000E+00
  0.00000000E+00  0.00000000E+00  0.00000000E+00
  0.00000000E+00  0.00000000E+00  0.00000000E+00
  0.00000000E+00  0.00000000E+00  0.00000000E+00
  0.00000000E+00  0.00000000E+00  0.00000000E+00
  0.00000000E+00  0.00000000E+00  0.00000000E+00
  0.00000000E+00  0.00000000E+00  0.00000000E+00
  0.00000000E+00  0.00000000E+00  0.00000000E+00
  0.00000000E+00  0.00000000E+00  0.00000000E+00
  0.00000000E+00  0.00000000E+00  0.00000000E+00
  0.00000000E+00  0.00000000E+00  0.00000000E+00
  0.00000000E+00  0.00000000E+00  0.00000000E+00
  0.00000000E+00  0.00000000E+00  0.00000000E+00
  0.00000000E+00  0.00000000E+00  0.00000000E+00
  0.00000000E+00  0.00000000E+00  0.00000000E+00
  0.00000000E+00  0.00000000E+00  0.00000000E+00
  0.00000000E+00  0.00000000E+00  0.00000000E+00
  0.00000000E+00  0.00000000E+00  0.00000000E+00
  0.00000000E+00  0.00000000E+00  0.00000000E+00
  0.00000000E+00  0.00000000E+00  0.00000000E+00
  0.00000000E+00  0.00000000E+00  0.00000000E+00
  0.00000000E+00  0.00000000E+00  0.00000000E+00
  0.00000000E+00  0.00000000E+00  0.00000000E+00
  0.00000000E+00  0.00000000E+00  0.00000000E+00
  0.00000000E+00  0.00000000E+00  0.00000000E+00
  0.00000000E+00  0.00000000E+00  0.00000000E+00
  0.00000000E+00  0.00000000E+00  0.00000000E+00
  0.00000000E+00  0.00000000E+00  0.00000000E+00
  0.00000000E+00  0.00000000E+00  0.00000000E+00
  0.00000000E+00  0.00000000E+00  0.00000000E+00
  0.00000000E+00  0.00000000E+00  0.00000000E+00
  0.00000000E+00  0.00000000E+00  0.00000000E+00
  0.00000000E+00  0.00000000E+00  0.00000000E+00
  0.00000000E+00  0.00000000E+00  0.00000000E+00
  0.00000000E+00  0.00000000E+00  0.00000000E+00
  0.00000000E+00  0.00000000E+00  0.00000000E+00
