Primitive Cell                          
   1.00000000000000     
    22.9040287275098677    0.0418531368914328    0.0000000000000000
   -11.4060991918531727   19.8296125568525632    0.0000000000000000
     0.0000000000000000    0.0000000000000000   20.0000000000000000
   N    C    H 
    24    60    60
Direct
  0.9177204480232106  0.0777876489899114  0.3671191431744489
  0.9183406681644968  0.0793135351107921  0.6137609831117601
  0.8436222717278454  0.1422031203885439  0.3666993439346982
  0.8437966263513133  0.1431905253685457  0.6133490666868227
  0.8321257929904959  0.3649346188688227  0.3655414370763950
  0.6273368251799170  0.1588635345211173  0.3682142955467711
  0.8376201228328455  0.3660922298967222  0.6120084921769973
  0.6235913609132098  0.1521631078148715  0.6124909969342767
  0.8471857636537123  0.7181649522831606  0.3688149621283756
  0.9202543885205898  0.8559478811380856  0.3688653228480590
  0.2768098875700460  0.1519712547866234  0.3691561379735546
  0.1392523821875500  0.0784772074596134  0.3689795403073006
  0.8386771089328420  0.4871665067667976  0.3662663499055014
  0.6279993340771810  0.4887330640890042  0.3670128175912879
  0.5055682067060374  0.3731589767206529  0.3663978756071486
  0.5042288918241837  0.1549548354346726  0.3662148005340740
  0.8463082191465432  0.7175344049233487  0.6152561066775277
  0.9194635374415370  0.8553334958608119  0.6159148524450160
  0.2773327842334297  0.1502587633464785  0.6157080553731902
  0.1393409100000795  0.0762427144585374  0.6158774618282266
  0.8445383301427114  0.4887434621806150  0.6130532867503149
  0.6276775420951282  0.4882196383804143  0.6138125412001898
  0.5067837532745543  0.3662784999498001  0.6112109284208813
  0.5070002122951323  0.1574378216499568  0.6134794255853677
  0.9554198785921812  0.0391735385431673  0.4909664954316000
  0.9212635838105427  0.9684425851678782  0.4913573180709108
  0.0260688487542140  0.0741528429977336  0.4914675340913419
  0.8989745901964810  0.0929421518217239  0.4293128983169083
  0.9174151189554891  0.0763902003608194  0.4904662720570272
  0.8992370812514778  0.0936508829285145  0.5513794552646587
  0.7360131000772299  0.1473408761194719  0.4900190485599580
  0.8069252258675377  0.1826953276987666  0.4897983353043927
  0.8421537868638751  0.2536736667152866  0.4892899607213224
  0.8628219167108568  0.1278863446142608  0.4291050356555175
  0.8629503338022602  0.1284447541887417  0.5511472736741609
  0.8447024276152106  0.1452062415386095  0.4900134682773896
  0.8071950334702080  0.2895513019061156  0.4890071068512256
  0.7367551083312378  0.2527624045072301  0.4891996886930059
  0.7001193140628601  0.1821695707892985  0.4896134085644732
  0.8396829872975005  0.3968622612665342  0.4279827004820049
  0.8361862501541495  0.3643063509102475  0.4888016730235449
  0.6255281841309710  0.1535535802901506  0.4895813039006214
  0.5937043146241550  0.1515056067345739  0.4285337986617321
  0.8424576530644288  0.3975718044484466  0.5498548808493666
  0.5929957818797433  0.1492544677410663  0.5505890371968079
  0.9564320864750542  0.9326717891534315  0.4923726432296860
  0.0270448541363209  0.9689914869746801  0.4929654085903579
  0.0625367327892690  0.0397433522027839  0.4924370998356480
  0.7034049525898780  0.5352063118153438  0.4905470803402494
  0.7402404332237680  0.5012586638981844  0.4900787856268352
  0.8107640485365550  0.5348236524188081  0.4904624830188737
  0.8454463032641897  0.6054800239850735  0.4913102926030462
  0.8100039376441970  0.6412173834512842  0.4916770901658509
  0.7391175479937075  0.6058020512931819  0.4913163904234779
  0.4595747462006727  0.1868226021205146  0.4899223537008055
  0.4933020214868762  0.2573899288694150  0.4886461134891817
  0.4595253238594736  0.2943932437868000  0.4893950492339556
  0.3890724520950926  0.2588535826658429  0.4906773743063155
  0.3535166930037903  0.1878840390645351  0.4917531277620313
  0.3890237586647558  0.1522621493903813  0.4915707131328233
  0.8655770448331879  0.7516236715080638  0.4311223133535051
  0.9013089334037616  0.8225572134153794  0.4312665039914663
  0.2433528832014247  0.1326737718726037  0.4314330244486086
  0.1725298646610582  0.0966145465249539  0.4314225088078416
  0.8395704728621354  0.4887331240393564  0.4896814102566651
  0.8410394051898322  0.4591491635783171  0.4284306694720001
  0.5052760663094986  0.3690464675022085  0.4895608545057328
  0.5342430572129260  0.4015744556673226  0.4288478083581211
  0.5963296507961857  0.4623492084042411  0.4291530318037431
  0.6287830623716957  0.4896582817694011  0.4902843760916085
  0.5318424269820881  0.1510202898041939  0.4288410896898469
  0.5049179495124179  0.1572154887471058  0.4900293021213145
  0.9191596067553860  0.8575794979518463  0.4923880700209153
  0.9009625829580941  0.8222582785668635  0.5533359470399120
  0.8651874882709336  0.7513171910988703  0.5531169972004548
  0.8473295235358194  0.7163068177160596  0.4920358879454838
  0.1375286014073112  0.0777418085905808  0.4925115744359374
  0.1727070234881651  0.0955384465887477  0.5535420604814831
  0.2435753525264204  0.1317120892776131  0.5534587108606885
  0.2785392119554544  0.1503782201015369  0.4923835756226680
  0.8438804921219827  0.4599042093298848  0.5503639728026215
  0.5958578195152455  0.4615634968550708  0.5512247263523093
  0.5339707279139390  0.4005713303507221  0.5510012009011831
  0.5336156233027864  0.1535265370799124  0.5508840239760531
  0.0531274382405513  0.1291515099887164  0.4911462025700146
  0.8663184484684834  0.9406953064159538  0.4909041403014882
  0.9348129834598353  0.0445372262355690  0.3715251927577015
  0.8796734642754132  0.0607263719094675  0.3329173663700473
  0.9357022102108559  0.0462512879812493  0.6098195427461803
  0.8804189934400810  0.0624564358685902  0.6480845056062208
  0.7094056720729185  0.0923278260347473  0.4903369384899747
  0.8971113272125351  0.2804866226029077  0.4891224105835406
  0.8246434475397564  0.1739138947710970  0.3711010934846257
  0.8820149485182824  0.1608752484101004  0.3328167339430266
  0.8821961220834922  0.1621448295144887  0.6472267428261631
  0.8246613000880956  0.1747399581248033  0.6086517376080991
  0.7091385576656393  0.2802353899391576  0.4888994167939131
  0.8642843736613059  0.3967891382363931  0.3302161897930347
  0.8356611285329549  0.3224356162352038  0.3686253756044522
  0.6559659983006796  0.1367562819229988  0.3638077135515303
  0.6034102161738417  0.1598262990659407  0.3260760037700123
  0.8421839326969618  0.3242302994941326  0.6079763159600802
  0.8707362743526019  0.3984967826908488  0.6464182451128764
  0.6617952090933059  0.1417635710745699  0.6094471950190368
  0.5898412731660869  0.1237059006880017  0.6484252918755402
  0.0549292105268648  0.9417753016487680  0.4936696147675619
  0.9003819570517777  0.6334778988264347  0.4915274230394147
  0.7123122207925192  0.6341265673958674  0.4916405606352470
  0.7128514414520382  0.4462817363790208  0.4893933097622352
  0.3609256961280281  0.2858371195691802  0.4907555074290784
  0.3609295163580981  0.0972713555877789  0.4927463438164281
  0.5482068005154517  0.2847310153784690  0.4876569184550874
  0.8314060583264933  0.6681336119745964  0.3727732253700893
  0.8849821820187032  0.7401029863965505  0.3344589501608652
  0.9409172319157761  0.9067464057878425  0.3730528090246281
  0.8815421239191963  0.8372703823127239  0.3353686573096937
  0.3272233315501083  0.1702247569275954  0.3732873664759495
  0.2565176031997396  0.1139848527873397  0.3348243040780261
  0.0888698730638211  0.0604978141781558  0.3730059729335480
  0.1596722558636046  0.1172827024487475  0.3355255538067894
  0.8283287828599555  0.5253754353333733  0.3712025900724711
  0.8049542058159247  0.4515824143018108  0.3342507101000578
  0.5949251774963003  0.4873114406770895  0.3320117210517779
  0.6678221467800611  0.5362999614205961  0.3708154638973511
  0.4657523766303200  0.3255966441621752  0.3704032755166082
  0.5399998597744116  0.3740059084658256  0.3333997586745951
  0.4911970207420353  0.1134475639192303  0.3372696605429226
  0.4624702537317731  0.1593636844227859  0.3727608682677612
  0.8839883724556898  0.7389869457829548  0.6497906614339684
  0.8301654417015740  0.6674463008157261  0.6109874855144284
  0.9399820154716778  0.9061347934595503  0.6119572792470009
  0.8805718547913131  0.8363397232461338  0.6492136946766891
  0.2571434104006869  0.1117348671704903  0.6494851976567730
  0.3276436861445617  0.1679954305082845  0.6110809472887340
  0.0889697820941109  0.0583060346754891  0.6119465406989377
  0.1597295335561881  0.1143136913514624  0.6501171869254492
  0.8351150791020530  0.5276474737081287  0.6090706686033727
  0.8116617213380337  0.4538555026853786  0.6461257377655940
  0.6729073716550786  0.5310035531632806  0.6076516613183216
  0.5987828488136273  0.4994004711838826  0.6442959297912978
  0.4559628409627408  0.3411977863128755  0.6152442074941717
  0.5310636389164358  0.3908020422961087  0.6533736765693234
  0.4704865338091295  0.1702094656492648  0.6086793715734231
  0.5435815721719024  0.1908251313764282  0.6449194676213281
 
  0.00000000E+00  0.00000000E+00  0.00000000E+00
  0.00000000E+00  0.00000000E+00  0.00000000E+00
  0.00000000E+00  0.00000000E+00  0.00000000E+00
  0.00000000E+00  0.00000000E+00  0.00000000E+00
  0.00000000E+00  0.00000000E+00  0.00000000E+00
  0.00000000E+00  0.00000000E+00  0.00000000E+00
  0.00000000E+00  0.00000000E+00  0.00000000E+00
  0.00000000E+00  0.00000000E+00  0.00000000E+00
  0.00000000E+00  0.00000000E+00  0.00000000E+00
  0.00000000E+00  0.00000000E+00  0.00000000E+00
  0.00000000E+00  0.00000000E+00  0.00000000E+00
  0.00000000E+00  0.00000000E+00  0.00000000E+00
  0.00000000E+00  0.00000000E+00  0.00000000E+00
  0.00000000E+00  0.00000000E+00  0.00000000E+00
  0.00000000E+00  0.00000000E+00  0.00000000E+00
  0.00000000E+00  0.00000000E+00  0.00000000E+00
  0.00000000E+00  0.00000000E+00  0.00000000E+00
  0.00000000E+00  0.00000000E+00  0.00000000E+00
  0.00000000E+00  0.00000000E+00  0.00000000E+00
  0.00000000E+00  0.00000000E+00  0.00000000E+00
  0.00000000E+00  0.00000000E+00  0.00000000E+00
  0.00000000E+00  0.00000000E+00  0.00000000E+00
  0.00000000E+00  0.00000000E+00  0.00000000E+00
  0.00000000E+00  0.00000000E+00  0.00000000E+00
  0.00000000E+00  0.00000000E+00  0.00000000E+00
  0.00000000E+00  0.00000000E+00  0.00000000E+00
  0.00000000E+00  0.00000000E+00  0.00000000E+00
  0.00000000E+00  0.00000000E+00  0.00000000E+00
  0.00000000E+00  0.00000000E+00  0.00000000E+00
  0.00000000E+00  0.00000000E+00  0.00000000E+00
  0.00000000E+00  0.00000000E+00  0.00000000E+00
  0.00000000E+00  0.00000000E+00  0.00000000E+00
  0.00000000E+00  0.00000000E+00  0.00000000E+00
  0.00000000E+00  0.00000000E+00  0.00000000E+00
  0.00000000E+00  0.00000000E+00  0.00000000E+00
  0.00000000E+00  0.00000000E+00  0.00000000E+00
  0.00000000E+00  0.00000000E+00  0.00000000E+00
  0.00000000E+00  0.00000000E+00  0.00000000E+00
  0.00000000E+00  0.00000000E+00  0.00000000E+00
  0.00000000E+00  0.00000000E+00  0.00000000E+00
  0.00000000E+00  0.00000000E+00  0.00000000E+00
  0.00000000E+00  0.00000000E+00  0.00000000E+00
  0.00000000E+00  0.00000000E+00  0.00000000E+00
  0.00000000E+00  0.00000000E+00  0.00000000E+00
  0.00000000E+00  0.00000000E+00  0.00000000E+00
  0.00000000E+00  0.00000000E+00  0.00000000E+00
  0.00000000E+00  0.00000000E+00  0.00000000E+00
  0.00000000E+00  0.00000000E+00  0.00000000E+00
  0.00000000E+00  0.00000000E+00  0.00000000E+00
  0.00000000E+00  0.00000000E+00  0.00000000E+00
  0.00000000E+00  0.00000000E+00  0.00000000E+00
  0.00000000E+00  0.00000000E+00  0.00000000E+00
  0.00000000E+00  0.00000000E+00  0.00000000E+00
  0.00000000E+00  0.00000000E+00  0.00000000E+00
  0.00000000E+00  0.00000000E+00  0.00000000E+00
  0.00000000E+00  0.00000000E+00  0.00000000E+00
  0.00000000E+00  0.00000000E+00  0.00000000E+00
  0.00000000E+00  0.00000000E+00  0.00000000E+00
  0.00000000E+00  0.00000000E+00  0.00000000E+00
  0.00000000E+00  0.00000000E+00  0.00000000E+00
  0.00000000E+00  0.00000000E+00  0.00000000E+00
  0.00000000E+00  0.00000000E+00  0.00000000E+00
  0.00000000E+00  0.00000000E+00  0.00000000E+00
  0.00000000E+00  0.00000000E+00  0.00000000E+00
  0.00000000E+00  0.00000000E+00  0.00000000E+00
  0.00000000E+00  0.00000000E+00  0.00000000E+00
  0.00000000E+00  0.00000000E+00  0.00000000E+00
  0.00000000E+00  0.00000000E+00  0.00000000E+00
  0.00000000E+00  0.00000000E+00  0.00000000E+00
  0.00000000E+00  0.00000000E+00  0.00000000E+00
  0.00000000E+00  0.00000000E+00  0.00000000E+00
  0.00000000E+00  0.00000000E+00  0.00000000E+00
  0.00000000E+00  0.00000000E+00  0.00000000E+00
  0.00000000E+00  0.00000000E+00  0.00000000E+00
  0.00000000E+00  0.00000000E+00  0.00000000E+00
  0.00000000E+00  0.00000000E+00  0.00000000E+00
  0.00000000E+00  0.00000000E+00  0.00000000E+00
  0.00000000E+00  0.00000000E+00  0.00000000E+00
  0.00000000E+00  0.00000000E+00  0.00000000E+00
  0.00000000E+00  0.00000000E+00  0.00000000E+00
  0.00000000E+00  0.00000000E+00  0.00000000E+00
  0.00000000E+00  0.00000000E+00  0.00000000E+00
  0.00000000E+00  0.00000000E+00  0.00000000E+00
  0.00000000E+00  0.00000000E+00  0.00000000E+00
  0.00000000E+00  0.00000000E+00  0.00000000E+00
  0.00000000E+00  0.00000000E+00  0.00000000E+00
  0.00000000E+00  0.00000000E+00  0.00000000E+00
  0.00000000E+00  0.00000000E+00  0.00000000E+00
  0.00000000E+00  0.00000000E+00  0.00000000E+00
  0.00000000E+00  0.00000000E+00  0.00000000E+00
  0.00000000E+00  0.00000000E+00  0.00000000E+00
  0.00000000E+00  0.00000000E+00  0.00000000E+00
  0.00000000E+00  0.00000000E+00  0.00000000E+00
  0.00000000E+00  0.00000000E+00  0.00000000E+00
  0.00000000E+00  0.00000000E+00  0.00000000E+00
  0.00000000E+00  0.00000000E+00  0.00000000E+00
  0.00000000E+00  0.00000000E+00  0.00000000E+00
  0.00000000E+00  0.00000000E+00  0.00000000E+00
  0.00000000E+00  0.00000000E+00  0.00000000E+00
  0.00000000E+00  0.00000000E+00  0.00000000E+00
  0.00000000E+00  0.00000000E+00  0.00000000E+00
  0.00000000E+00  0.00000000E+00  0.00000000E+00
  0.00000000E+00  0.00000000E+00  0.00000000E+00
  0.00000000E+00  0.00000000E+00  0.00000000E+00
  0.00000000E+00  0.00000000E+00  0.00000000E+00
  0.00000000E+00  0.00000000E+00  0.00000000E+00
  0.00000000E+00  0.00000000E+00  0.00000000E+00
  0.00000000E+00  0.00000000E+00  0.00000000E+00
  0.00000000E+00  0.00000000E+00  0.00000000E+00
  0.00000000E+00  0.00000000E+00  0.00000000E+00
  0.00000000E+00  0.00000000E+00  0.00000000E+00
  0.00000000E+00  0.00000000E+00  0.00000000E+00
  0.00000000E+00  0.00000000E+00  0.00000000E+00
  0.00000000E+00  0.00000000E+00  0.00000000E+00
  0.00000000E+00  0.00000000E+00  0.00000000E+00
  0.00000000E+00  0.00000000E+00  0.00000000E+00
  0.00000000E+00  0.00000000E+00  0.00000000E+00
  0.00000000E+00  0.00000000E+00  0.00000000E+00
  0.00000000E+00  0.00000000E+00  0.00000000E+00
  0.00000000E+00  0.00000000E+00  0.00000000E+00
  0.00000000E+00  0.00000000E+00  0.00000000E+00
  0.00000000E+00  0.00000000E+00  0.00000000E+00
  0.00000000E+00  0.00000000E+00  0.00000000E+00
  0.00000000E+00  0.00000000E+00  0.00000000E+00
  0.00000000E+00  0.00000000E+00  0.00000000E+00
  0.00000000E+00  0.00000000E+00  0.00000000E+00
  0.00000000E+00  0.00000000E+00  0.00000000E+00
  0.00000000E+00  0.00000000E+00  0.00000000E+00
  0.00000000E+00  0.00000000E+00  0.00000000E+00
  0.00000000E+00  0.00000000E+00  0.00000000E+00
  0.00000000E+00  0.00000000E+00  0.00000000E+00
  0.00000000E+00  0.00000000E+00  0.00000000E+00
  0.00000000E+00  0.00000000E+00  0.00000000E+00
  0.00000000E+00  0.00000000E+00  0.00000000E+00
  0.00000000E+00  0.00000000E+00  0.00000000E+00
  0.00000000E+00  0.00000000E+00  0.00000000E+00
  0.00000000E+00  0.00000000E+00  0.00000000E+00
  0.00000000E+00  0.00000000E+00  0.00000000E+00
  0.00000000E+00  0.00000000E+00  0.00000000E+00
  0.00000000E+00  0.00000000E+00  0.00000000E+00
  0.00000000E+00  0.00000000E+00  0.00000000E+00
  0.00000000E+00  0.00000000E+00  0.00000000E+00
  0.00000000E+00  0.00000000E+00  0.00000000E+00
  0.00000000E+00  0.00000000E+00  0.00000000E+00
