Primitive Cell                          
   1.00000000000000     
    14.5564396027612091    0.0276911115299151    0.0000000000000000
    -7.2589909055159501   12.5925776333806976    0.0000000000000000
     0.0000000000000000    0.0000000000000000   20.0000000000000000
   H    C    N    O 
     6    24    12    12
Direct
  0.8982754958528716  0.5947470404294748  0.4858198809686201
  0.6895574621740650  0.5893184873469508  0.4676873477047749
  0.6705760320678706  0.1091078439852140  0.5629061291786925
  0.1035410602435149  0.4096440720225090  0.5189846035137506
  0.3132699901522216  0.4167835552308574  0.5384002499639422
  0.3301041943803895  0.8962927712165509  0.4410361365681865
  0.4615122199138781  0.0518219495717602  0.4611222251042264
  0.6158036357698009  0.3870724794040967  0.5026897835891546
  0.6156569286495355  0.2318647793497135  0.4944907748236389
  0.7710287159863682  0.3864607074396034  0.5014022620741088
  0.3865550471087076  0.6186245151322183  0.5026729920580237
  0.3858545079118656  0.7735851696258678  0.5091578214015726
  0.2308854431130172  0.6183674457641999  0.5033668764797881
  0.1137254784420136  0.5604776429711080  0.5015325468688943
  0.0530087895930862  0.6103444203265838  0.4920153339917164
  0.9432483192527030  0.5540532547563686  0.4932939416517854
  0.4458113406960962  0.5603865357073587  0.5006735856841189
  0.5524638063801248  0.6066867570603520  0.4811097808656584
  0.6072080649744080  0.5513090750134779  0.4837045317751532
  0.4433455714453984  0.8910883632489615  0.5089688671490435
  0.5391784116515836  0.9537179594260650  0.5428505654961739
  0.5965732631721608  0.0631930843458548  0.5355157547038090
  0.8881691567735785  0.4440291627101161  0.5033753724314067
  0.9488367560606008  0.3940977170069999  0.5128476262886679
  0.0586196585438543  0.4504076405722586  0.5115863532770248
  0.5570108468311332  0.4457436763877496  0.5053853841030289
  0.4505386684613057  0.3996362764846424  0.5253313484026023
  0.3956690241098784  0.4548472799226246  0.5224818693891464
  0.5576589688623841  0.1143705806499113  0.4946875703976445
  0.4042241932262698  0.9422763815649233  0.4683039080842946
  0.5588111849815078  0.2812408684691121  0.4972726945500767
  0.7215666901200990  0.2805406897941012  0.4961005386056314
  0.7220747391352162  0.4439890535544677  0.5046171658927534
  0.4431177167287998  0.7245992711299110  0.5068437830842001
  0.2799845968378705  0.7244713452670339  0.5073744751905593
  0.2802603588165198  0.5611712229106729  0.5013875953684703
  0.1012058314587563  0.7251514705812525  0.4768311368328852
  0.6114395602149330  0.7147574699883705  0.4521395672748696
  0.5789483886108187  0.9066512714104391  0.5929122185478590
  0.9003708324363018  0.2791616625753264  0.5277818461628740
  0.3922815184768496  0.2921543240676598  0.5551606643220595
  0.4211929556423044  0.0993807839642500  0.4117946360527682
  0.0965955203187079  0.7817039981994967  0.5210068229131721
  0.1370632202090292  0.7528721150862907  0.4197260790339641
  0.6925990395663320  0.7792194977738092  0.4817024563354053
  0.5767651672265544  0.7293044528850388  0.3991803703569659
  0.5116576904112335  0.8365418502152977  0.6294079497998695
  0.6756270866347620  0.9435279746489016  0.5959233609174177
  0.9072894304627397  0.2232806229082342  0.4840159572067506
  0.8615647846578369  0.2504598355806991  0.5841427331076403
  0.3092113684956246  0.2276996157834361  0.5273540082202359
  0.4295778474954304  0.2780611912945474  0.6071391691977368
  0.4877637097387151  0.1675872826314020  0.3740046735364260
  0.3248032095223934  0.0649950046058976  0.4108056592507765
 
  0.00000000E+00  0.00000000E+00  0.00000000E+00
  0.00000000E+00  0.00000000E+00  0.00000000E+00
  0.00000000E+00  0.00000000E+00  0.00000000E+00
  0.00000000E+00  0.00000000E+00  0.00000000E+00
  0.00000000E+00  0.00000000E+00  0.00000000E+00
  0.00000000E+00  0.00000000E+00  0.00000000E+00
  0.00000000E+00  0.00000000E+00  0.00000000E+00
  0.00000000E+00  0.00000000E+00  0.00000000E+00
  0.00000000E+00  0.00000000E+00  0.00000000E+00
  0.00000000E+00  0.00000000E+00  0.00000000E+00
  0.00000000E+00  0.00000000E+00  0.00000000E+00
  0.00000000E+00  0.00000000E+00  0.00000000E+00
  0.00000000E+00  0.00000000E+00  0.00000000E+00
  0.00000000E+00  0.00000000E+00  0.00000000E+00
  0.00000000E+00  0.00000000E+00  0.00000000E+00
  0.00000000E+00  0.00000000E+00  0.00000000E+00
  0.00000000E+00  0.00000000E+00  0.00000000E+00
  0.00000000E+00  0.00000000E+00  0.00000000E+00
  0.00000000E+00  0.00000000E+00  0.00000000E+00
  0.00000000E+00  0.00000000E+00  0.00000000E+00
  0.00000000E+00  0.00000000E+00  0.00000000E+00
  0.00000000E+00  0.00000000E+00  0.00000000E+00
  0.00000000E+00  0.00000000E+00  0.00000000E+00
  0.00000000E+00  0.00000000E+00  0.00000000E+00
  0.00000000E+00  0.00000000E+00  0.00000000E+00
  0.00000000E+00  0.00000000E+00  0.00000000E+00
  0.00000000E+00  0.00000000E+00  0.00000000E+00
  0.00000000E+00  0.00000000E+00  0.00000000E+00
  0.00000000E+00  0.00000000E+00  0.00000000E+00
  0.00000000E+00  0.00000000E+00  0.00000000E+00
  0.00000000E+00  0.00000000E+00  0.00000000E+00
  0.00000000E+00  0.00000000E+00  0.00000000E+00
  0.00000000E+00  0.00000000E+00  0.00000000E+00
  0.00000000E+00  0.00000000E+00  0.00000000E+00
  0.00000000E+00  0.00000000E+00  0.00000000E+00
  0.00000000E+00  0.00000000E+00  0.00000000E+00
  0.00000000E+00  0.00000000E+00  0.00000000E+00
  0.00000000E+00  0.00000000E+00  0.00000000E+00
  0.00000000E+00  0.00000000E+00  0.00000000E+00
  0.00000000E+00  0.00000000E+00  0.00000000E+00
  0.00000000E+00  0.00000000E+00  0.00000000E+00
  0.00000000E+00  0.00000000E+00  0.00000000E+00
  0.00000000E+00  0.00000000E+00  0.00000000E+00
  0.00000000E+00  0.00000000E+00  0.00000000E+00
  0.00000000E+00  0.00000000E+00  0.00000000E+00
  0.00000000E+00  0.00000000E+00  0.00000000E+00
  0.00000000E+00  0.00000000E+00  0.00000000E+00
  0.00000000E+00  0.00000000E+00  0.00000000E+00
  0.00000000E+00  0.00000000E+00  0.00000000E+00
  0.00000000E+00  0.00000000E+00  0.00000000E+00
  0.00000000E+00  0.00000000E+00  0.00000000E+00
  0.00000000E+00  0.00000000E+00  0.00000000E+00
  0.00000000E+00  0.00000000E+00  0.00000000E+00
  0.00000000E+00  0.00000000E+00  0.00000000E+00
