Primitive Cell                          
   1.00000000000000     
    14.7085161982744790    0.0022019131573550    0.0000000000000000
    -7.3523515698123116   12.7380881179804586    0.0000000000000000
     0.0000000000000000    0.0000000000000000   20.0000000000000000
   H    N    C 
     6    12    30
Direct
  0.7729825238396160  0.2610361217239401  0.5132457065128264
  0.4797742948932679  0.2608264229132757  0.5134104365931123
  0.2440333910950514  0.4965821487727098  0.5125153347232256
  0.7726532420614518  0.5539617978921569  0.5134887080752648
  0.2440089131650041  0.7896793151711634  0.5124719733207570
  0.5370506098824350  0.7896082011004921  0.5122471567472289
  0.5791064346864516  0.1674687824439189  0.6877065388581869
  0.5379543967023395  0.0839095507983103  0.4533467322996572
  0.8664382784222866  0.4561748182122045  0.6880192149104403
  0.5806921620008723  0.4559685137710616  0.6880594544163685
  0.9498829875602439  0.4961896909632202  0.4535046541555232
  0.5376954704878685  0.4960035791973425  0.4535618677092330
  0.0669269447051448  0.5549482119184646  0.5725763056295747
  0.4792850416971746  0.5548376061051457  0.5724757420220357
  0.4789645630548165  0.9667169424461051  0.5722770766526963
  0.1507176005347972  0.5982243392570581  0.3382656439279401
  0.4393730971723642  0.5975787448499901  0.3378698229385790
  0.4372553549738711  0.8836159370926993  0.3378303006704613
  0.6203582609873592  0.2488827879207918  0.5134995419440429
  0.5653935851988194  0.3036955565048061  0.5136849146129947
  0.7300999647672981  0.3037917907587584  0.5135820310409969
  0.5619025573692227  0.1319795663981793  0.5127025244540633
  0.5318576578434886  0.0723505781024016  0.5725628588459202
  0.5573734785227984  0.1237098537775125  0.6363779795701774
  0.6201686732875515  0.4134374293909673  0.5136475274953014
  0.7848655415220875  0.4135381639071696  0.5135718409613119
  0.7299072097627857  0.4683461053630182  0.5137362400503633
  0.9017637698186007  0.4721476031231688  0.5128555000791408
  0.9612855275717891  0.5022618196799016  0.5727710243845010
  0.9099489778910694  0.4772413215615572  0.6366025247671416
  0.5617389726932842  0.4719516061680480  0.5129114314315615
  0.5322011428329461  0.5020906073927875  0.5727584268628050
  0.5583526241494212  0.4770301083716504  0.6366098260656372
  0.3965668549748358  0.8017206507813057  0.5121786446400876
  0.4514363994142983  0.7468286610962807  0.5120583794661755
  0.3965657404537808  0.6370885123360210  0.5122681636933137
  0.2868226048477425  0.5822024529833669  0.5122408658048059
  0.2319533908979707  0.6371056485657931  0.5123912424949282
  0.2868279191365417  0.7468562340014131  0.5122025763901235
  0.1150442125887210  0.5787908132056501  0.5132280177202730
  0.4551226653200331  0.5787277318864668  0.5131042000304191
  0.4550272679245495  0.9186386308182009  0.5129328223358200
  0.0555014417541031  0.5491436043660940  0.4533351398299601
  0.1069291001962824  0.5754488600749852  0.3895726000008040
  0.4850934315312188  0.5490225871272685  0.4532691311488719
  0.4601849172231240  0.5752041399632901  0.3893865013628783
  0.4849893203076050  0.9782806258004229  0.4530873868970389
  0.4592314822755839  0.9270562239434881  0.3892559052054523
 
  0.00000000E+00  0.00000000E+00  0.00000000E+00
  0.00000000E+00  0.00000000E+00  0.00000000E+00
  0.00000000E+00  0.00000000E+00  0.00000000E+00
  0.00000000E+00  0.00000000E+00  0.00000000E+00
  0.00000000E+00  0.00000000E+00  0.00000000E+00
  0.00000000E+00  0.00000000E+00  0.00000000E+00
  0.00000000E+00  0.00000000E+00  0.00000000E+00
  0.00000000E+00  0.00000000E+00  0.00000000E+00
  0.00000000E+00  0.00000000E+00  0.00000000E+00
  0.00000000E+00  0.00000000E+00  0.00000000E+00
  0.00000000E+00  0.00000000E+00  0.00000000E+00
  0.00000000E+00  0.00000000E+00  0.00000000E+00
  0.00000000E+00  0.00000000E+00  0.00000000E+00
  0.00000000E+00  0.00000000E+00  0.00000000E+00
  0.00000000E+00  0.00000000E+00  0.00000000E+00
  0.00000000E+00  0.00000000E+00  0.00000000E+00
  0.00000000E+00  0.00000000E+00  0.00000000E+00
  0.00000000E+00  0.00000000E+00  0.00000000E+00
  0.00000000E+00  0.00000000E+00  0.00000000E+00
  0.00000000E+00  0.00000000E+00  0.00000000E+00
  0.00000000E+00  0.00000000E+00  0.00000000E+00
  0.00000000E+00  0.00000000E+00  0.00000000E+00
  0.00000000E+00  0.00000000E+00  0.00000000E+00
  0.00000000E+00  0.00000000E+00  0.00000000E+00
  0.00000000E+00  0.00000000E+00  0.00000000E+00
  0.00000000E+00  0.00000000E+00  0.00000000E+00
  0.00000000E+00  0.00000000E+00  0.00000000E+00
  0.00000000E+00  0.00000000E+00  0.00000000E+00
  0.00000000E+00  0.00000000E+00  0.00000000E+00
  0.00000000E+00  0.00000000E+00  0.00000000E+00
  0.00000000E+00  0.00000000E+00  0.00000000E+00
  0.00000000E+00  0.00000000E+00  0.00000000E+00
  0.00000000E+00  0.00000000E+00  0.00000000E+00
  0.00000000E+00  0.00000000E+00  0.00000000E+00
  0.00000000E+00  0.00000000E+00  0.00000000E+00
  0.00000000E+00  0.00000000E+00  0.00000000E+00
  0.00000000E+00  0.00000000E+00  0.00000000E+00
  0.00000000E+00  0.00000000E+00  0.00000000E+00
  0.00000000E+00  0.00000000E+00  0.00000000E+00
  0.00000000E+00  0.00000000E+00  0.00000000E+00
  0.00000000E+00  0.00000000E+00  0.00000000E+00
  0.00000000E+00  0.00000000E+00  0.00000000E+00
  0.00000000E+00  0.00000000E+00  0.00000000E+00
  0.00000000E+00  0.00000000E+00  0.00000000E+00
  0.00000000E+00  0.00000000E+00  0.00000000E+00
  0.00000000E+00  0.00000000E+00  0.00000000E+00
  0.00000000E+00  0.00000000E+00  0.00000000E+00
  0.00000000E+00  0.00000000E+00  0.00000000E+00
