Primitive Cell                          
   1.00000000000000     
    25.6624233350717503    0.0391373994032440    0.0000000000000000
     0.0257516372149683   25.6515051314384870    0.0000000000000000
     0.0000000000000000    0.0000000000000000   20.0000000000000000
   N    C    H 
     8    60    38
Direct
  0.9311226015336231  0.9313990914868171  0.4703779638540837
  0.0454583373825699  0.9340744503546503  0.4654132688018251
  0.0467887601511308  0.0483335896288395  0.4713770323165605
  0.9324557686229937  0.0457381968507633  0.4766976932605402
  0.9883491687221380  0.3468876414860063  0.5069285741187883
  0.3461886017656965  0.9901602968389014  0.4391844174921147
  0.9903252064273715  0.6325680415753254  0.4388658096124942
  0.6319431981339250  0.9886181965362368  0.5056325607564602
  0.8913376872234906  0.8531422262954678  0.4674288371605471
  0.8533357490358355  0.8907187247969119  0.4724760248805069
  0.8782959919750297  0.9406948334188812  0.4736129062783547
  0.9410160235802039  0.8786759015881742  0.4669846128042607
  0.9903361959799000  0.8547303957884722  0.4633839432182256
  0.0386367531451555  0.8810979868054503  0.4628446654856617
  0.0983417473780790  0.9414524292646576  0.4631690061918547
  0.1258424377986884  0.8917248370586606  0.4589356560593885
  0.0886680185175805  0.8540855121058968  0.4597314484890305
  0.1241041821388578  0.9900840863254246  0.4637463200905501
  0.0995765384829141  0.0391042100486416  0.4676116761895983
  0.0368686507639495  0.1009979178249836  0.4755838324899813
  0.0864773087290729  0.1266403547806263  0.4739360612380494
  0.1245522090559774  0.0890549609524101  0.4696824661400996
  0.9875927917730465  0.1249475392650510  0.4797481028889052
  0.9392648237818264  0.0986953872327803  0.4798028538942845
  0.8796036344987073  0.0383268455632262  0.4792145084658657
  0.8520530229540455  0.0880509691126221  0.4831949001901847
  0.8892663034554005  0.1256435939689169  0.4845052745623022
  0.8537922581126125  0.9897183896788562  0.4780103502949089
  0.7958747103393975  0.9895723149479139  0.4832959432054551
  0.6858368124900451  0.9883402684825597  0.4952072887466699
  0.7104016104360440  0.9696096285231093  0.4368486019955071
  0.7644730081899880  0.9704152741349645  0.4312328274117689
  0.9873684066563158  0.1828862688569473  0.4853426285659097
  0.9872935239735057  0.2929467105982155  0.4970340881083715
  0.9659092609552502  0.2685039275206051  0.4401907363372288
  0.9661071919950288  0.2143990380320062  0.4346734109566270
  0.1820798362653520  0.9903246702360988  0.4592217155834533
  0.2071213248073462  0.0112222592014390  0.4027705372691983
  0.2611349597689454  0.0104155010711722  0.3972189725568427
  0.2922312339452731  0.9897211681490106  0.4488159387320252
  0.9907743876483863  0.7967490568027813  0.4588524407046037
  0.0095775744389428  0.7716308508971963  0.4011754950139803
  0.9900233866096997  0.6865451391826269  0.4485480690839978
  0.0087742560357000  0.7175942765367793  0.3957904724581098
  0.9917849197401836  0.4350361804874296  0.4659846303124198
  0.9922759542021069  0.4676086142585092  0.4091824551494980
  0.9923067478346894  0.5214459312041981  0.4157637617617027
  0.9921667681157942  0.3785165583363792  0.4572115331515008
  0.5435461444196434  0.9921339957443323  0.4655398505553947
  0.5107765424125077  0.9928618882991316  0.4089361298042604
  0.4569929263347774  0.9924215679444259  0.4158260106528004
  0.5999820487322225  0.9931281335367714  0.4563474964514640
  0.7712228545478226  0.0075640952513325  0.5417270651845598
  0.7172763789775587  0.0065075505428922  0.5478997205497436
  0.0079028506241343  0.2073973758168890  0.5424019022504893
  0.0073588453560376  0.2613898040527403  0.5485787978336987
  0.2672715371593384  0.9682967334282964  0.5052599198769627
  0.2131494269611522  0.9687560130141151  0.5101487144482633
  0.9711202328658004  0.7657066737193361  0.5110007984163971
  0.9705458495593007  0.7115750964273602  0.5061687854768664
  0.9926019039109519  0.5117823752587682  0.5365624012464494
  0.9916617144163666  0.4579526719010403  0.5299800320639960
  0.9927734180988139  0.5443624043854030  0.4797659760988751
  0.9940906502279674  0.6008635166889675  0.4885360971228394
  0.4670716116068050  0.9917308696675846  0.5365784920933621
  0.5208716684498427  0.9912631726902674  0.5296638824719651
  0.4343161807774152  0.9921600933750980  0.4799631006402123
  0.3778432145850203  0.9930953064435144  0.4889433000910586
  0.0226662726093068  0.6981485488542134  0.3506675479303780
  0.0241975224149868  0.7951599016848050  0.3598172444920422
  0.8858426841509157  0.8113289176593028  0.4643226852453211
  0.8115789003823437  0.8847729991843138  0.4751004675503339
  0.9590565504812218  0.9596446948638757  0.4707757400682127
  0.0189126069044008  0.0200274511337284  0.4711471347191676
  0.0943719429183858  0.8121592180374790  0.4584105850912081
  0.1677489904637000  0.8865095510883378  0.4558626817470497
  0.1835445640388613  0.0273251134763655  0.3623066260976771
  0.2804935795005079  0.0258051288687611  0.3529001989081948
  0.1663613758723699  0.0949068608611796  0.4681597029566333
  0.0917802469292539  0.1685403209726246  0.4757675949842195
  0.8100932954470963  0.0932668804592822  0.4847647741346819
  0.8836005727142364  0.1674793812844513  0.4883942499540908
  0.9493497758604192  0.1958869964178902  0.3905284771041551
  0.9481135599335602  0.2920123956914509  0.4008355850614507
  0.7830203245661451  0.9558827127212339  0.3857679985085980
  0.6870844703522323  0.9534146783994402  0.3962574970557853
  0.9925965271231760  0.4499413943964754  0.3594655219585334
  0.9924943794022596  0.5468936164559679  0.3721088854569601
  0.9968442993064599  0.3645847935321527  0.4051504923735010
  0.5282431555086617  0.9937038170545804  0.3591116982303291
  0.4313848481634324  0.9927981272111310  0.3723312026411847
  0.6134922084378331  0.9989224743887277  0.4042979969606577
  0.9538566322313287  0.6885529841022446  0.5467067685881304
  0.9559303835027677  0.7846258445324210  0.5558609640837275
  0.1942699975044704  0.9518093037666446  0.5539162480312072
  0.2903644428996799  0.9501292971030253  0.5447371123274962
  0.0236425542264058  0.1834332899817710  0.5827354012176684
  0.0226223062364568  0.2803793103017753  0.5932244463264666
  0.6981618416581341  0.0198394070796297  0.5935226860756373
  0.7950571022468296  0.0218442247615300  0.5829718912220656
  0.9913415479539296  0.4324970644999340  0.5736255885266601
  0.9931171052776548  0.5294339202358529  0.5862790395020383
  0.9993272740499961  0.6146558675606357  0.5405542096668512
  0.5464634399481341  0.9907823454228932  0.5731729769393112
  0.4495920850419566  0.9917341899198959  0.5863982123522433
  0.3640247881491874  0.9973913937521672  0.5410955006501723
 
  0.00000000E+00  0.00000000E+00  0.00000000E+00
  0.00000000E+00  0.00000000E+00  0.00000000E+00
  0.00000000E+00  0.00000000E+00  0.00000000E+00
  0.00000000E+00  0.00000000E+00  0.00000000E+00
  0.00000000E+00  0.00000000E+00  0.00000000E+00
  0.00000000E+00  0.00000000E+00  0.00000000E+00
  0.00000000E+00  0.00000000E+00  0.00000000E+00
  0.00000000E+00  0.00000000E+00  0.00000000E+00
  0.00000000E+00  0.00000000E+00  0.00000000E+00
  0.00000000E+00  0.00000000E+00  0.00000000E+00
  0.00000000E+00  0.00000000E+00  0.00000000E+00
  0.00000000E+00  0.00000000E+00  0.00000000E+00
  0.00000000E+00  0.00000000E+00  0.00000000E+00
  0.00000000E+00  0.00000000E+00  0.00000000E+00
  0.00000000E+00  0.00000000E+00  0.00000000E+00
  0.00000000E+00  0.00000000E+00  0.00000000E+00
  0.00000000E+00  0.00000000E+00  0.00000000E+00
  0.00000000E+00  0.00000000E+00  0.00000000E+00
  0.00000000E+00  0.00000000E+00  0.00000000E+00
  0.00000000E+00  0.00000000E+00  0.00000000E+00
  0.00000000E+00  0.00000000E+00  0.00000000E+00
  0.00000000E+00  0.00000000E+00  0.00000000E+00
  0.00000000E+00  0.00000000E+00  0.00000000E+00
  0.00000000E+00  0.00000000E+00  0.00000000E+00
  0.00000000E+00  0.00000000E+00  0.00000000E+00
  0.00000000E+00  0.00000000E+00  0.00000000E+00
  0.00000000E+00  0.00000000E+00  0.00000000E+00
  0.00000000E+00  0.00000000E+00  0.00000000E+00
  0.00000000E+00  0.00000000E+00  0.00000000E+00
  0.00000000E+00  0.00000000E+00  0.00000000E+00
  0.00000000E+00  0.00000000E+00  0.00000000E+00
  0.00000000E+00  0.00000000E+00  0.00000000E+00
  0.00000000E+00  0.00000000E+00  0.00000000E+00
  0.00000000E+00  0.00000000E+00  0.00000000E+00
  0.00000000E+00  0.00000000E+00  0.00000000E+00
  0.00000000E+00  0.00000000E+00  0.00000000E+00
  0.00000000E+00  0.00000000E+00  0.00000000E+00
  0.00000000E+00  0.00000000E+00  0.00000000E+00
  0.00000000E+00  0.00000000E+00  0.00000000E+00
  0.00000000E+00  0.00000000E+00  0.00000000E+00
  0.00000000E+00  0.00000000E+00  0.00000000E+00
  0.00000000E+00  0.00000000E+00  0.00000000E+00
  0.00000000E+00  0.00000000E+00  0.00000000E+00
  0.00000000E+00  0.00000000E+00  0.00000000E+00
  0.00000000E+00  0.00000000E+00  0.00000000E+00
  0.00000000E+00  0.00000000E+00  0.00000000E+00
  0.00000000E+00  0.00000000E+00  0.00000000E+00
  0.00000000E+00  0.00000000E+00  0.00000000E+00
  0.00000000E+00  0.00000000E+00  0.00000000E+00
  0.00000000E+00  0.00000000E+00  0.00000000E+00
  0.00000000E+00  0.00000000E+00  0.00000000E+00
  0.00000000E+00  0.00000000E+00  0.00000000E+00
  0.00000000E+00  0.00000000E+00  0.00000000E+00
  0.00000000E+00  0.00000000E+00  0.00000000E+00
  0.00000000E+00  0.00000000E+00  0.00000000E+00
  0.00000000E+00  0.00000000E+00  0.00000000E+00
  0.00000000E+00  0.00000000E+00  0.00000000E+00
  0.00000000E+00  0.00000000E+00  0.00000000E+00
  0.00000000E+00  0.00000000E+00  0.00000000E+00
  0.00000000E+00  0.00000000E+00  0.00000000E+00
  0.00000000E+00  0.00000000E+00  0.00000000E+00
  0.00000000E+00  0.00000000E+00  0.00000000E+00
  0.00000000E+00  0.00000000E+00  0.00000000E+00
  0.00000000E+00  0.00000000E+00  0.00000000E+00
  0.00000000E+00  0.00000000E+00  0.00000000E+00
  0.00000000E+00  0.00000000E+00  0.00000000E+00
  0.00000000E+00  0.00000000E+00  0.00000000E+00
  0.00000000E+00  0.00000000E+00  0.00000000E+00
  0.00000000E+00  0.00000000E+00  0.00000000E+00
  0.00000000E+00  0.00000000E+00  0.00000000E+00
  0.00000000E+00  0.00000000E+00  0.00000000E+00
  0.00000000E+00  0.00000000E+00  0.00000000E+00
  0.00000000E+00  0.00000000E+00  0.00000000E+00
  0.00000000E+00  0.00000000E+00  0.00000000E+00
  0.00000000E+00  0.00000000E+00  0.00000000E+00
  0.00000000E+00  0.00000000E+00  0.00000000E+00
  0.00000000E+00  0.00000000E+00  0.00000000E+00
  0.00000000E+00  0.00000000E+00  0.00000000E+00
  0.00000000E+00  0.00000000E+00  0.00000000E+00
  0.00000000E+00  0.00000000E+00  0.00000000E+00
  0.00000000E+00  0.00000000E+00  0.00000000E+00
  0.00000000E+00  0.00000000E+00  0.00000000E+00
  0.00000000E+00  0.00000000E+00  0.00000000E+00
  0.00000000E+00  0.00000000E+00  0.00000000E+00
  0.00000000E+00  0.00000000E+00  0.00000000E+00
  0.00000000E+00  0.00000000E+00  0.00000000E+00
  0.00000000E+00  0.00000000E+00  0.00000000E+00
  0.00000000E+00  0.00000000E+00  0.00000000E+00
  0.00000000E+00  0.00000000E+00  0.00000000E+00
  0.00000000E+00  0.00000000E+00  0.00000000E+00
  0.00000000E+00  0.00000000E+00  0.00000000E+00
  0.00000000E+00  0.00000000E+00  0.00000000E+00
  0.00000000E+00  0.00000000E+00  0.00000000E+00
  0.00000000E+00  0.00000000E+00  0.00000000E+00
  0.00000000E+00  0.00000000E+00  0.00000000E+00
  0.00000000E+00  0.00000000E+00  0.00000000E+00
  0.00000000E+00  0.00000000E+00  0.00000000E+00
  0.00000000E+00  0.00000000E+00  0.00000000E+00
  0.00000000E+00  0.00000000E+00  0.00000000E+00
  0.00000000E+00  0.00000000E+00  0.00000000E+00
  0.00000000E+00  0.00000000E+00  0.00000000E+00
  0.00000000E+00  0.00000000E+00  0.00000000E+00
  0.00000000E+00  0.00000000E+00  0.00000000E+00
  0.00000000E+00  0.00000000E+00  0.00000000E+00
  0.00000000E+00  0.00000000E+00  0.00000000E+00
  0.00000000E+00  0.00000000E+00  0.00000000E+00
