Primitive Cell                          
   1.00000000000000     
    14.5234641203442845    0.0000000000000000    0.0000000000000000
    -7.2617320601721422   12.5776888791699566    0.0000000000000000
     0.0000000000000000    0.0000000000000000   20.0000000000000000
   N    C    H 
     6    30    24
Direct
  0.2785697627889547  0.7214302372110453  0.5120178063496397
  0.2785697627889547  0.5571395255779095  0.5120178063496397
  0.4428604744220905  0.7214302372110453  0.5120178063496397
  0.7214724692468053  0.2785275307531947  0.5112560978487153
  0.7214724692468053  0.4429449384936035  0.5112560978487153
  0.5570550615063965  0.2785275307531947  0.5112560978487153
  0.0558252967956676  0.5279126483978374  0.5725436550514829
  0.1105933304511098  0.5552966652255549  0.5110464362167377
  0.1157898884075976  0.5578949442038024  0.6377579389660895
  0.0561137751706937  0.5280568875853504  0.4497560169933408
  0.1131362705993624  0.5565681352996847  0.3833904632251830
  0.2291543708631707  0.6145771854315853  0.5118093926943601
  0.3854228145684147  0.7708456291368293  0.5118093926943601
  0.3854228145684147  0.6145771854315853  0.5118093926943601
  0.6146463407947067  0.2292926815894134  0.5112197184525797
  0.7707073184105866  0.3853536592052933  0.5112197184525797
  0.6146463407947067  0.3853536592052933  0.5112197184525797
  0.5275935169676274  0.4724064830323726  0.5716608899614357
  0.4720873516021626  0.5279126483978374  0.5725436550514829
  0.4447033347744451  0.5552966652255549  0.5110464362167377
  0.4421050557961976  0.5578949442038024  0.6377579389660895
  0.5275935169676274  0.0551870339352405  0.5716608899614357
  0.4720873516021626  0.9441747032043324  0.5725436550514829
  0.4447033347744451  0.8894066695488902  0.5110464362167377
  0.4421050557961976  0.8842101115924024  0.6377579389660895
  0.9448129660647595  0.4724064830323726  0.5716608899614357
  0.5554002168517442  0.4445997831482558  0.5111272293866591
  0.4719431124146496  0.5280568875853504  0.4497560169933408
  0.5276577243357039  0.4723422756642961  0.4508113593882683
  0.4434318647003153  0.5565681352996847  0.3833904632251830
  0.5554002168517442  0.1108004337034814  0.5111272293866591
  0.4719431124146496  0.9438862248293063  0.4497560169933408
  0.5276577243357039  0.0553154486714149  0.4508113593882683
  0.4434318647003153  0.8868637294006376  0.3833904632251830
  0.8891995662965186  0.4445997831482558  0.5111272293866591
  0.9446845513285851  0.4723422756642961  0.4508113593882683
  0.0610969438333555  0.5305484719166742  0.6804919228553317
  0.1673325602044855  0.6446520994474341  0.6419251598028595
  0.1673325602044855  0.5226804607570514  0.6419251598028595
  0.1998802413741601  0.5999401206870800  0.3887929432433594
  0.0912470153899960  0.6066662293291074  0.3538923959897247
  0.0912470153899960  0.4845807860608815  0.3538923959897247
  0.3553479005525659  0.5226804607570514  0.6419251598028595
  0.3553479005525659  0.8326674397955145  0.6419251598028595
  0.4000598793129200  0.5999401206870800  0.3887929432433594
  0.3933337706708926  0.4845807860608815  0.3538923959897247
  0.4000598793129200  0.8001197586258399  0.3887929432433594
  0.3933337706708926  0.9087529846100040  0.3538923959897247
  0.5494248545132123  0.4505751454867877  0.6188318898500356
  0.4694515280833258  0.5305484719166742  0.6804919228553317
  0.4773195392429486  0.6446520994474341  0.6419251598028595
  0.5494248545132123  0.0988497090264246  0.6188318898500356
  0.4694515280833258  0.9389030561666445  0.6804919228553317
  0.4773195392429486  0.8326674397955145  0.6419251598028595
  0.9011502909735754  0.4505751454867877  0.6188318898500356
  0.5495127339898360  0.4504872660101640  0.4036211708316060
  0.5154192139391185  0.6066662293291074  0.3538923959897247
  0.5495127339898360  0.0990254679796791  0.4036211708316060
  0.5154192139391185  0.9087529846100040  0.3538923959897247
  0.9009745320203209  0.4504872660101640  0.4036211708316060
 
  0.00000000E+00  0.00000000E+00  0.00000000E+00
  0.00000000E+00  0.00000000E+00  0.00000000E+00
  0.00000000E+00  0.00000000E+00  0.00000000E+00
  0.00000000E+00  0.00000000E+00  0.00000000E+00
  0.00000000E+00  0.00000000E+00  0.00000000E+00
  0.00000000E+00  0.00000000E+00  0.00000000E+00
  0.00000000E+00  0.00000000E+00  0.00000000E+00
  0.00000000E+00  0.00000000E+00  0.00000000E+00
  0.00000000E+00  0.00000000E+00  0.00000000E+00
  0.00000000E+00  0.00000000E+00  0.00000000E+00
  0.00000000E+00  0.00000000E+00  0.00000000E+00
  0.00000000E+00  0.00000000E+00  0.00000000E+00
  0.00000000E+00  0.00000000E+00  0.00000000E+00
  0.00000000E+00  0.00000000E+00  0.00000000E+00
  0.00000000E+00  0.00000000E+00  0.00000000E+00
  0.00000000E+00  0.00000000E+00  0.00000000E+00
  0.00000000E+00  0.00000000E+00  0.00000000E+00
  0.00000000E+00  0.00000000E+00  0.00000000E+00
  0.00000000E+00  0.00000000E+00  0.00000000E+00
  0.00000000E+00  0.00000000E+00  0.00000000E+00
  0.00000000E+00  0.00000000E+00  0.00000000E+00
  0.00000000E+00  0.00000000E+00  0.00000000E+00
  0.00000000E+00  0.00000000E+00  0.00000000E+00
  0.00000000E+00  0.00000000E+00  0.00000000E+00
  0.00000000E+00  0.00000000E+00  0.00000000E+00
  0.00000000E+00  0.00000000E+00  0.00000000E+00
  0.00000000E+00  0.00000000E+00  0.00000000E+00
  0.00000000E+00  0.00000000E+00  0.00000000E+00
  0.00000000E+00  0.00000000E+00  0.00000000E+00
  0.00000000E+00  0.00000000E+00  0.00000000E+00
  0.00000000E+00  0.00000000E+00  0.00000000E+00
  0.00000000E+00  0.00000000E+00  0.00000000E+00
  0.00000000E+00  0.00000000E+00  0.00000000E+00
  0.00000000E+00  0.00000000E+00  0.00000000E+00
  0.00000000E+00  0.00000000E+00  0.00000000E+00
  0.00000000E+00  0.00000000E+00  0.00000000E+00
  0.00000000E+00  0.00000000E+00  0.00000000E+00
  0.00000000E+00  0.00000000E+00  0.00000000E+00
  0.00000000E+00  0.00000000E+00  0.00000000E+00
  0.00000000E+00  0.00000000E+00  0.00000000E+00
  0.00000000E+00  0.00000000E+00  0.00000000E+00
  0.00000000E+00  0.00000000E+00  0.00000000E+00
  0.00000000E+00  0.00000000E+00  0.00000000E+00
  0.00000000E+00  0.00000000E+00  0.00000000E+00
  0.00000000E+00  0.00000000E+00  0.00000000E+00
  0.00000000E+00  0.00000000E+00  0.00000000E+00
  0.00000000E+00  0.00000000E+00  0.00000000E+00
  0.00000000E+00  0.00000000E+00  0.00000000E+00
  0.00000000E+00  0.00000000E+00  0.00000000E+00
  0.00000000E+00  0.00000000E+00  0.00000000E+00
  0.00000000E+00  0.00000000E+00  0.00000000E+00
  0.00000000E+00  0.00000000E+00  0.00000000E+00
  0.00000000E+00  0.00000000E+00  0.00000000E+00
  0.00000000E+00  0.00000000E+00  0.00000000E+00
  0.00000000E+00  0.00000000E+00  0.00000000E+00
  0.00000000E+00  0.00000000E+00  0.00000000E+00
  0.00000000E+00  0.00000000E+00  0.00000000E+00
  0.00000000E+00  0.00000000E+00  0.00000000E+00
  0.00000000E+00  0.00000000E+00  0.00000000E+00
  0.00000000E+00  0.00000000E+00  0.00000000E+00
