Primitive Cell                          
   1.00000000000000     
    22.4406321509036175    0.0000000117862734    0.0000000000000000
   -11.2203160856590216   19.4341575137712361    0.0000000000000000
     0.0000000000000000    0.0000000000000000   20.0000000000000000
   H    C    O    N 
    18    36    12    12
Direct
  0.2465496372664830  0.7050486647782392  0.5009412436509706
  0.2949513352217608  0.5415009724882438  0.5009412436509706
  0.4584990275117562  0.7534503627335170  0.5009412436509706
  0.4874643368181282  0.6639496420226223  0.5046009176139492
  0.1764853052045012  0.5125356631818718  0.5046009176139492
  0.3360503579773777  0.8235146947954988  0.5046009176139492
  0.5415009724882438  0.2465496372664830  0.4990587563490294
  0.5125356631818718  0.3360503579773777  0.4953990823860508
  0.4414657508744142  0.3722694863336002  0.5135566494316564
  0.6277305136663998  0.0691962645408140  0.5135566494316564
  0.5585342491255858  0.6277305136663998  0.4864433505683436
  0.3722694863336002  0.9308037354591860  0.4864433505683436
  0.0691962645408140  0.4414657508744142  0.4864433505683436
  0.7534503627335170  0.2949513352217608  0.4990587563490294
  0.7050486647782392  0.4584990275117562  0.4990587563490294
  0.8235146947954988  0.4874643368181282  0.4953990823860508
  0.6639496420226223  0.1764853052045012  0.4953990823860508
  0.9308037354591860  0.5585342491255858  0.5135566494316564
  0.3821217245661117  0.6447067118363563  0.5005793770150859
  0.4038211809799392  0.7149189434809031  0.5006057744716514
  0.3552932881636437  0.7374150127297696  0.5005793770150859
  0.2850810565190969  0.6889022374990432  0.5006057744716514
  0.2625849872702304  0.6178782754338883  0.5005793770150859
  0.3110977625009568  0.5961788190200608  0.5006057744716514
  0.3775282371861053  0.8107159662425403  0.5013426400077066
  0.1892840337574597  0.5668122709435721  0.5013426400077066
  0.4331877290564279  0.6224717628138947  0.5013426400077066
  0.6178782754338883  0.3552932881636437  0.4994206229849141
  0.5961788190200608  0.2850810565190969  0.4993942255283486
  0.6224717628138947  0.1892840337574597  0.4986573599922934
  0.5668122709435721  0.3775282371861053  0.4986573599922934
  0.4599122046042652  0.5334274644056762  0.4991501406306114
  0.4304485726769229  0.4615112049206544  0.5059482120021386
  0.4679387925034462  0.4279477227559596  0.5072916463872659
  0.4665725355943238  0.9264847401985890  0.4991501406306114
  0.5384887950793456  0.9689373677562827  0.5059482120021386
  0.5720522772440404  0.0399910697474795  0.5072916463872659
  0.0735152598014110  0.5400877953957348  0.4991501406306114
  0.0310626322437173  0.5695514273230771  0.5059482120021386
  0.5400877953957348  0.4665725355943238  0.5008498593693886
  0.5695514273230771  0.5384887950793456  0.4940517879978614
  0.5320612074965609  0.5720522772440404  0.4927083536127341
  0.5334274644056762  0.0735152598014110  0.5008498593693886
  0.4615112049206544  0.0310626322437173  0.4940517879978614
  0.4279477227559596  0.9600089302525205  0.4927083536127341
  0.0399910697474795  0.4679387925034462  0.4927083536127341
  0.6447067118363563  0.2625849872702304  0.4994206229849141
  0.7149189434809031  0.3110977625009568  0.4993942255283486
  0.7374150127297696  0.3821217245661117  0.4994206229849141
  0.6889022374990432  0.4038211809799392  0.4993942255283486
  0.8107159662425403  0.4331877290564279  0.4986573599922934
  0.9600089302525205  0.5320612074965609  0.5072916463872659
  0.9264847401985890  0.4599122046042652  0.5008498593693886
  0.9689373677562827  0.4304485726769229  0.4940517879978614
  0.3213084950855034  0.3998291771561071  0.4601372628978595
  0.3311099520765026  0.4099302006000514  0.5698728137602060
  0.6001708228438929  0.9214793179293963  0.4601372628978595
  0.5900697993999486  0.9211797514764513  0.5698728137602060
  0.0785206820706108  0.6786915049144966  0.4601372628978595
  0.0788202485235487  0.6688900479234974  0.5698728137602060
  0.3998291771561071  0.0785206820706108  0.5398627371021476
  0.4099302006000514  0.0788202485235487  0.4301271862397940
  0.6786915049144966  0.6001708228438929  0.5398627371021476
  0.6688900479234974  0.5900697993999486  0.4301271862397940
  0.9214793179293963  0.3213084950855034  0.5398627371021476
  0.9211797514764513  0.3311099520765026  0.4301271862397940
  0.3546649373992778  0.4204668149756685  0.5125099077362307
  0.4141992519197544  0.5580442528811886  0.4990207058765037
  0.5795331850243315  0.9341981224236022  0.5125099077362307
  0.4419557471188114  0.8561549990385799  0.4990207058765037
  0.0658018775763978  0.6453350626007222  0.5125099077362307
  0.1438450009614201  0.5858007480802456  0.4990207058765037
  0.5858007480802456  0.4419557471188114  0.5009792941234963
  0.4204668149756685  0.0658018775763978  0.4874900922637764
  0.5580442528811886  0.1438450009614201  0.5009792941234963
  0.6453350626007222  0.5795331850243315  0.4874900922637764
  0.9341981224236022  0.3546649373992778  0.4874900922637764
  0.8561549990385799  0.4141992519197544  0.5009792941234963
 
  0.00000000E+00  0.00000000E+00  0.00000000E+00
  0.00000000E+00  0.00000000E+00  0.00000000E+00
  0.00000000E+00  0.00000000E+00  0.00000000E+00
  0.00000000E+00  0.00000000E+00  0.00000000E+00
  0.00000000E+00  0.00000000E+00  0.00000000E+00
  0.00000000E+00  0.00000000E+00  0.00000000E+00
  0.00000000E+00  0.00000000E+00  0.00000000E+00
  0.00000000E+00  0.00000000E+00  0.00000000E+00
  0.00000000E+00  0.00000000E+00  0.00000000E+00
  0.00000000E+00  0.00000000E+00  0.00000000E+00
  0.00000000E+00  0.00000000E+00  0.00000000E+00
  0.00000000E+00  0.00000000E+00  0.00000000E+00
  0.00000000E+00  0.00000000E+00  0.00000000E+00
  0.00000000E+00  0.00000000E+00  0.00000000E+00
  0.00000000E+00  0.00000000E+00  0.00000000E+00
  0.00000000E+00  0.00000000E+00  0.00000000E+00
  0.00000000E+00  0.00000000E+00  0.00000000E+00
  0.00000000E+00  0.00000000E+00  0.00000000E+00
  0.00000000E+00  0.00000000E+00  0.00000000E+00
  0.00000000E+00  0.00000000E+00  0.00000000E+00
  0.00000000E+00  0.00000000E+00  0.00000000E+00
  0.00000000E+00  0.00000000E+00  0.00000000E+00
  0.00000000E+00  0.00000000E+00  0.00000000E+00
  0.00000000E+00  0.00000000E+00  0.00000000E+00
  0.00000000E+00  0.00000000E+00  0.00000000E+00
  0.00000000E+00  0.00000000E+00  0.00000000E+00
  0.00000000E+00  0.00000000E+00  0.00000000E+00
  0.00000000E+00  0.00000000E+00  0.00000000E+00
  0.00000000E+00  0.00000000E+00  0.00000000E+00
  0.00000000E+00  0.00000000E+00  0.00000000E+00
  0.00000000E+00  0.00000000E+00  0.00000000E+00
  0.00000000E+00  0.00000000E+00  0.00000000E+00
  0.00000000E+00  0.00000000E+00  0.00000000E+00
  0.00000000E+00  0.00000000E+00  0.00000000E+00
  0.00000000E+00  0.00000000E+00  0.00000000E+00
  0.00000000E+00  0.00000000E+00  0.00000000E+00
  0.00000000E+00  0.00000000E+00  0.00000000E+00
  0.00000000E+00  0.00000000E+00  0.00000000E+00
  0.00000000E+00  0.00000000E+00  0.00000000E+00
  0.00000000E+00  0.00000000E+00  0.00000000E+00
  0.00000000E+00  0.00000000E+00  0.00000000E+00
  0.00000000E+00  0.00000000E+00  0.00000000E+00
  0.00000000E+00  0.00000000E+00  0.00000000E+00
  0.00000000E+00  0.00000000E+00  0.00000000E+00
  0.00000000E+00  0.00000000E+00  0.00000000E+00
  0.00000000E+00  0.00000000E+00  0.00000000E+00
  0.00000000E+00  0.00000000E+00  0.00000000E+00
  0.00000000E+00  0.00000000E+00  0.00000000E+00
  0.00000000E+00  0.00000000E+00  0.00000000E+00
  0.00000000E+00  0.00000000E+00  0.00000000E+00
  0.00000000E+00  0.00000000E+00  0.00000000E+00
  0.00000000E+00  0.00000000E+00  0.00000000E+00
  0.00000000E+00  0.00000000E+00  0.00000000E+00
  0.00000000E+00  0.00000000E+00  0.00000000E+00
  0.00000000E+00  0.00000000E+00  0.00000000E+00
  0.00000000E+00  0.00000000E+00  0.00000000E+00
  0.00000000E+00  0.00000000E+00  0.00000000E+00
  0.00000000E+00  0.00000000E+00  0.00000000E+00
  0.00000000E+00  0.00000000E+00  0.00000000E+00
  0.00000000E+00  0.00000000E+00  0.00000000E+00
  0.00000000E+00  0.00000000E+00  0.00000000E+00
  0.00000000E+00  0.00000000E+00  0.00000000E+00
  0.00000000E+00  0.00000000E+00  0.00000000E+00
  0.00000000E+00  0.00000000E+00  0.00000000E+00
  0.00000000E+00  0.00000000E+00  0.00000000E+00
  0.00000000E+00  0.00000000E+00  0.00000000E+00
  0.00000000E+00  0.00000000E+00  0.00000000E+00
  0.00000000E+00  0.00000000E+00  0.00000000E+00
  0.00000000E+00  0.00000000E+00  0.00000000E+00
  0.00000000E+00  0.00000000E+00  0.00000000E+00
  0.00000000E+00  0.00000000E+00  0.00000000E+00
  0.00000000E+00  0.00000000E+00  0.00000000E+00
  0.00000000E+00  0.00000000E+00  0.00000000E+00
  0.00000000E+00  0.00000000E+00  0.00000000E+00
  0.00000000E+00  0.00000000E+00  0.00000000E+00
  0.00000000E+00  0.00000000E+00  0.00000000E+00
  0.00000000E+00  0.00000000E+00  0.00000000E+00
  0.00000000E+00  0.00000000E+00  0.00000000E+00
