Primitive Cell                          
   1.00000000000000     
    21.4193467326939633    0.0040169306625480    0.0000000000000000
   -10.7061549618625733   18.5554411224078279    0.0000000000000000
     0.0000000000000000    0.0000000000000000   20.0000000000000000
   C    O    H    N 
    24     6    15    21
Direct
  0.3790835328587718  0.6479661769426102  0.5600978669464780
  0.3458489305679180  0.7329378850491821  0.5598048701507210
  0.4380265741986378  0.6277874551348859  0.5594254665606044
  0.3660641637366382  0.8120029562442923  0.5589418016094285
  0.1816629827373362  0.5560924894067725  0.5614676425705412
  0.6048751640876304  0.3385486589582669  0.4767565834288519
  0.6552952325778918  0.2677397995621646  0.4768460082548813
  0.5381013373691346  0.3462592926373489  0.4829101614317821
  0.6476886369875530  0.1932684072218507  0.4826924180863301
  0.8004622997582089  0.4557787680834480  0.4827285514045840
  0.5905583043861355  0.0365628921823244  0.5173445395855225
  0.5538767114382495  0.9639212756490139  0.5352825134783856
  0.4772508178863148  0.9281165993450813  0.5292674243256386
  0.4386596514413199  0.4034663254260735  0.5175716395498284
  0.4025484271732935  0.4400863896954377  0.5352021499244870
  0.4434975045578256  0.5167596979964344  0.5299196376334194
  0.9565663837272922  0.5550470275630346  0.5193550557543816
  0.0291272333689818  0.5911133346947111  0.5375752838934389
  0.0651895355462173  0.5505150902806051  0.5317758861248052
  0.2608757474648158  0.6147816020316341  0.5608864129361706
  0.7260497001120854  0.3889272983143073  0.4767189723641820
  0.5487119005655572  0.0671073010496599  0.4988226637763091
  0.5112581388520283  0.4453814538408380  0.4998938661706376
  0.9263437318429553  0.4827528268673120  0.5007772514096445
  0.3222721974504807  0.8309098961868813  0.5723527868645206
  0.1627640656806690  0.4936738203353315  0.5759929852270957
  0.5006254132206891  0.6716400243129002  0.5729867648668971
  0.7005985894752982  0.1853641706498834  0.4875979293544361
  0.8083265672934985  0.5166212696727470  0.4867951467367249
  0.4772572108590012  0.2934044801234847  0.4874298088018278
  0.6429100945559014  0.9575531780884177  0.5621694554549208
  0.5632453097731940  0.8830654911260183  0.5831051101729372
  0.6490805287189616  0.0691943788118934  0.5190181401106670
  0.4631039992673038  0.8246907578210880  0.5366562495586109
  0.3068364161894479  0.3508626076443164  0.5606311924974747
  0.3117841162169412  0.4301996613893877  0.5823164408908283
  0.4127250584397189  0.3449326196330489  0.5187704562288573
  0.3540303956844895  0.5305809866590323  0.5370340573380901
  0.0350805515038886  0.6862102177725617  0.5646671969468002
  0.1095133566908046  0.6810524716258115  0.5858470068344985
  0.9237426791425989  0.5807706008488083  0.5207283134251099
  0.1685155282879762  0.6400310888554372  0.5381535957995425
  0.5393410395888054  0.1557677924138687  0.4788441136078134
  0.6092625212289349  0.4545302977005505  0.4800939273421463
  0.8378591847365513  0.3847814623175765  0.4803337212285967
  0.3102337693739727  0.5940280228911092  0.5607674465081232
  0.3998155071439626  0.7180373561201208  0.5597494277719335
  0.2758187739939189  0.6836408486848384  0.5602766494943552
  0.6693798068903831  0.3991596761356888  0.4762876486882632
  0.5946645045445607  0.2716765988701937  0.4766075750820988
  0.7221697876367088  0.3244040416295633  0.4766764768468121
  0.5889607573306179  0.9281732785195729  0.5547449916904483
  0.4377968573281947  0.8541665602506541  0.5424310621337938
  0.3313953811474093  0.4048844495727622  0.5536330924045032
  0.4087854826502451  0.5561093683529705  0.5428145806512603
  0.0647351718160323  0.6619304412106501  0.5570217179931731
  0.1392321505047391  0.5853868874127599  0.5448187798436024
  0.4412827260259462  0.9607155678609445  0.5093542450138671
  0.4759959918698868  0.0303021205861924  0.4950783832755548
  0.5770139559024372  0.1399990802401589  0.4844325218035408
  0.5123896783607051  0.5528341249141775  0.5110167800775471
  0.5473529194053555  0.5181300959210517  0.4969753817392757
  0.5557613879471077  0.4169998790945471  0.4854516632991093
  0.0327947298913429  0.4819180612929870  0.5121078865003170
  0.9632522438104942  0.4468954192928081  0.4975906497690659
  0.8536229491780176  0.4382308429798982  0.4857557718989582
 
  0.00000000E+00  0.00000000E+00  0.00000000E+00
  0.00000000E+00  0.00000000E+00  0.00000000E+00
  0.00000000E+00  0.00000000E+00  0.00000000E+00
  0.00000000E+00  0.00000000E+00  0.00000000E+00
  0.00000000E+00  0.00000000E+00  0.00000000E+00
  0.00000000E+00  0.00000000E+00  0.00000000E+00
  0.00000000E+00  0.00000000E+00  0.00000000E+00
  0.00000000E+00  0.00000000E+00  0.00000000E+00
  0.00000000E+00  0.00000000E+00  0.00000000E+00
  0.00000000E+00  0.00000000E+00  0.00000000E+00
  0.00000000E+00  0.00000000E+00  0.00000000E+00
  0.00000000E+00  0.00000000E+00  0.00000000E+00
  0.00000000E+00  0.00000000E+00  0.00000000E+00
  0.00000000E+00  0.00000000E+00  0.00000000E+00
  0.00000000E+00  0.00000000E+00  0.00000000E+00
  0.00000000E+00  0.00000000E+00  0.00000000E+00
  0.00000000E+00  0.00000000E+00  0.00000000E+00
  0.00000000E+00  0.00000000E+00  0.00000000E+00
  0.00000000E+00  0.00000000E+00  0.00000000E+00
  0.00000000E+00  0.00000000E+00  0.00000000E+00
  0.00000000E+00  0.00000000E+00  0.00000000E+00
  0.00000000E+00  0.00000000E+00  0.00000000E+00
  0.00000000E+00  0.00000000E+00  0.00000000E+00
  0.00000000E+00  0.00000000E+00  0.00000000E+00
  0.00000000E+00  0.00000000E+00  0.00000000E+00
  0.00000000E+00  0.00000000E+00  0.00000000E+00
  0.00000000E+00  0.00000000E+00  0.00000000E+00
  0.00000000E+00  0.00000000E+00  0.00000000E+00
  0.00000000E+00  0.00000000E+00  0.00000000E+00
  0.00000000E+00  0.00000000E+00  0.00000000E+00
  0.00000000E+00  0.00000000E+00  0.00000000E+00
  0.00000000E+00  0.00000000E+00  0.00000000E+00
  0.00000000E+00  0.00000000E+00  0.00000000E+00
  0.00000000E+00  0.00000000E+00  0.00000000E+00
  0.00000000E+00  0.00000000E+00  0.00000000E+00
  0.00000000E+00  0.00000000E+00  0.00000000E+00
  0.00000000E+00  0.00000000E+00  0.00000000E+00
  0.00000000E+00  0.00000000E+00  0.00000000E+00
  0.00000000E+00  0.00000000E+00  0.00000000E+00
  0.00000000E+00  0.00000000E+00  0.00000000E+00
  0.00000000E+00  0.00000000E+00  0.00000000E+00
  0.00000000E+00  0.00000000E+00  0.00000000E+00
  0.00000000E+00  0.00000000E+00  0.00000000E+00
  0.00000000E+00  0.00000000E+00  0.00000000E+00
  0.00000000E+00  0.00000000E+00  0.00000000E+00
  0.00000000E+00  0.00000000E+00  0.00000000E+00
  0.00000000E+00  0.00000000E+00  0.00000000E+00
  0.00000000E+00  0.00000000E+00  0.00000000E+00
  0.00000000E+00  0.00000000E+00  0.00000000E+00
  0.00000000E+00  0.00000000E+00  0.00000000E+00
  0.00000000E+00  0.00000000E+00  0.00000000E+00
  0.00000000E+00  0.00000000E+00  0.00000000E+00
  0.00000000E+00  0.00000000E+00  0.00000000E+00
  0.00000000E+00  0.00000000E+00  0.00000000E+00
  0.00000000E+00  0.00000000E+00  0.00000000E+00
  0.00000000E+00  0.00000000E+00  0.00000000E+00
  0.00000000E+00  0.00000000E+00  0.00000000E+00
  0.00000000E+00  0.00000000E+00  0.00000000E+00
  0.00000000E+00  0.00000000E+00  0.00000000E+00
  0.00000000E+00  0.00000000E+00  0.00000000E+00
  0.00000000E+00  0.00000000E+00  0.00000000E+00
  0.00000000E+00  0.00000000E+00  0.00000000E+00
  0.00000000E+00  0.00000000E+00  0.00000000E+00
  0.00000000E+00  0.00000000E+00  0.00000000E+00
  0.00000000E+00  0.00000000E+00  0.00000000E+00
  0.00000000E+00  0.00000000E+00  0.00000000E+00
