Primitive Cell                          
   1.00000000000000     
    12.4766520710385329   -0.0011040207468837    0.0000000000000000
     0.0067008008697191   21.2751769518855411    0.0000000000000000
     0.7596532317904614    0.4273071906601894   20.0000000000000000
   C    H    N 
    48    30     2
Direct
  0.0671409498510727  0.9331528445335238  0.4728610946824148
  0.1634019475806099  0.8988619568119418  0.4716810045329467
  0.1651163823557127  0.8328854418679725  0.4712297334705440
  0.0671697055762621  0.8004148959326400  0.4728366534663735
  0.0671744876372529  0.0032686076941175  0.4728827490265459
  0.0672389097876902  0.1359884802698517  0.4728990037297862
  0.9694429306493078  0.1036148673299593  0.4713386100960690
  0.9710623711497348  0.0376207848356316  0.4717864986670648
  0.4683456188547410  0.7346032902886463  0.4713694672506463
  0.5671697397049869  0.6355719876667862  0.4729066082893638
  0.8556002831245522  0.7412422449343197  0.4426119356934208
  0.7580512925982461  0.7097208821270300  0.4418988473869661
  0.2683342198266416  0.7986974053110671  0.4702979266767784
  0.3606511741544836  0.8237975133780253  0.4369519089564236
  0.4585707824068237  0.7926461099402502  0.4370887237173520
  0.5669405297275816  0.5030385691914674  0.4727829209654288
  0.5270177751459784  0.5380602296367130  0.4188066029066135
  0.5261209654114509  0.6035228035362081  0.4190117546862950
  0.6662401170888330  0.2019803027189795  0.4713060611859916
  0.5670258896685425  0.3009071884278711  0.4728359771148618
  0.2824417436404545  0.1963717624152608  0.4426023062912208
  0.3800642597377220  0.2279473893735329  0.4418668241878834
  0.8663666397028322  0.1378849800956274  0.4703700505760011
  0.7781777466443955  0.1141670797025185  0.4369279901685630
  0.6802517494421636  0.1453376167264366  0.4369832188092033
  0.5668519546496640  0.4334540727523617  0.4727522011379719
  0.6133082619472106  0.4006588767389232  0.4187316783466528
  0.6144355965681783  0.3351856178253314  0.4189187311224742
  0.9692069286715821  0.8328317777810810  0.4744736558584819
  0.9708805329238857  0.8988291496042464  0.4740291415503819
  0.1633335832711822  0.0375188680584841  0.4740014624690758
  0.1649996341993329  0.1034921902388319  0.4744730690583054
  0.6661012242596414  0.7344919755791608  0.4745880570762395
  0.6758945975187487  0.7911071392260141  0.5089523955772037
  0.7737888310868257  0.8222732385527181  0.5090104804656974
  0.8660319440248543  0.7985768996939910  0.4755078735686311
  0.3763392067289644  0.7085010842244586  0.5039633305171947
  0.2787484622048808  0.7400302587615712  0.5031712497209284
  0.6081058372855566  0.6012176989048399  0.5267450355376155
  0.6069825495788734  0.5357434962526213  0.5268145053251772
  0.4680834993316410  0.2018773677070484  0.4745261251680759
  0.4541528849885381  0.1438615283894009  0.5088655746270021
  0.3562897380704868  0.1126459269001785  0.5089016162437332
  0.2680688950657952  0.1376961249535782  0.4754610976703759
  0.7542374450280391  0.2267690905292525  0.5039358302824510
  0.8519169619272944  0.1952468797760503  0.5032142978692349
  0.5194521919537536  0.3330505179701788  0.5266868342844973
  0.5204007130959525  0.3985142755264874  0.5267919516441779
  0.0671718304668261  0.7491481608177679  0.4728439800382560
  0.0672664490520631  0.1872465451666656  0.4728976918086190
  0.5282608500379382  0.8129123824551812  0.4100941554317785
  0.3549442672067755  0.8679887488543372  0.4086032062127458
  0.4950788188981363  0.5134263614238463  0.3766194994713175
  0.4938250806363342  0.6304843342463826  0.3774113850696352
  0.7519334598203784  0.6659894766059367  0.4148719120380875
  0.9245604003747658  0.7218779776766624  0.4149138284078973
  0.6139022647671908  0.1262174108643848  0.4098991595966837
  0.7873760411001882  0.0711323689164658  0.4085643680196185
  0.6501632474546852  0.4270616546230670  0.3765187160236252
  0.6518378570160053  0.3099553231968031  0.3772884884660002
  0.3893732000979213  0.2727884311799400  0.4148714755930385
  0.2168003719295726  0.2168526582255623  0.4149613842681887
  0.2399262873115688  0.9233435267091608  0.4724278134002802
  0.8944359449567472  0.0131123875418524  0.4725974398551642
  0.8943422614381120  0.9233559174891326  0.4732933662940084
  0.2399412965377223  0.0130054345147173  0.4732077551404004
  0.2097286137127128  0.7195130955545750  0.5307509673597721
  0.3824224148031519  0.6636726198191738  0.5309726899471983
  0.6062588283559052  0.8102152884311948  0.5360739207943723
  0.7795454424540722  0.8652912907498447  0.5374037482705987
  0.6404594367866707  0.6263997906921830  0.5684029397194905
  0.6388371376719917  0.5092892302011052  0.5689523460048704
  0.9175282931557405  0.2146594880333197  0.5308305872063599
  0.7448546244882195  0.2705243552012888  0.5309256759826653
  0.5205059089462338  0.1236781345687845  0.5359833114937516
  0.3471903180422373  0.0684409616506159  0.5372255264825156
  0.4820743703573740  0.3061640182672249  0.5683349876323689
  0.4834335462348776  0.4232197498050496  0.5689711261623316
  0.5671970362777614  0.7025834582552264  0.4729658429283461
  0.5671208814957396  0.2338628889983170  0.4729062790412186
 
  0.00000000E+00  0.00000000E+00  0.00000000E+00
  0.00000000E+00  0.00000000E+00  0.00000000E+00
  0.00000000E+00  0.00000000E+00  0.00000000E+00
  0.00000000E+00  0.00000000E+00  0.00000000E+00
  0.00000000E+00  0.00000000E+00  0.00000000E+00
  0.00000000E+00  0.00000000E+00  0.00000000E+00
  0.00000000E+00  0.00000000E+00  0.00000000E+00
  0.00000000E+00  0.00000000E+00  0.00000000E+00
  0.00000000E+00  0.00000000E+00  0.00000000E+00
  0.00000000E+00  0.00000000E+00  0.00000000E+00
  0.00000000E+00  0.00000000E+00  0.00000000E+00
  0.00000000E+00  0.00000000E+00  0.00000000E+00
  0.00000000E+00  0.00000000E+00  0.00000000E+00
  0.00000000E+00  0.00000000E+00  0.00000000E+00
  0.00000000E+00  0.00000000E+00  0.00000000E+00
  0.00000000E+00  0.00000000E+00  0.00000000E+00
  0.00000000E+00  0.00000000E+00  0.00000000E+00
  0.00000000E+00  0.00000000E+00  0.00000000E+00
  0.00000000E+00  0.00000000E+00  0.00000000E+00
  0.00000000E+00  0.00000000E+00  0.00000000E+00
  0.00000000E+00  0.00000000E+00  0.00000000E+00
  0.00000000E+00  0.00000000E+00  0.00000000E+00
  0.00000000E+00  0.00000000E+00  0.00000000E+00
  0.00000000E+00  0.00000000E+00  0.00000000E+00
  0.00000000E+00  0.00000000E+00  0.00000000E+00
  0.00000000E+00  0.00000000E+00  0.00000000E+00
  0.00000000E+00  0.00000000E+00  0.00000000E+00
  0.00000000E+00  0.00000000E+00  0.00000000E+00
  0.00000000E+00  0.00000000E+00  0.00000000E+00
  0.00000000E+00  0.00000000E+00  0.00000000E+00
  0.00000000E+00  0.00000000E+00  0.00000000E+00
  0.00000000E+00  0.00000000E+00  0.00000000E+00
  0.00000000E+00  0.00000000E+00  0.00000000E+00
  0.00000000E+00  0.00000000E+00  0.00000000E+00
  0.00000000E+00  0.00000000E+00  0.00000000E+00
  0.00000000E+00  0.00000000E+00  0.00000000E+00
  0.00000000E+00  0.00000000E+00  0.00000000E+00
  0.00000000E+00  0.00000000E+00  0.00000000E+00
  0.00000000E+00  0.00000000E+00  0.00000000E+00
  0.00000000E+00  0.00000000E+00  0.00000000E+00
  0.00000000E+00  0.00000000E+00  0.00000000E+00
  0.00000000E+00  0.00000000E+00  0.00000000E+00
  0.00000000E+00  0.00000000E+00  0.00000000E+00
  0.00000000E+00  0.00000000E+00  0.00000000E+00
  0.00000000E+00  0.00000000E+00  0.00000000E+00
  0.00000000E+00  0.00000000E+00  0.00000000E+00
  0.00000000E+00  0.00000000E+00  0.00000000E+00
  0.00000000E+00  0.00000000E+00  0.00000000E+00
  0.00000000E+00  0.00000000E+00  0.00000000E+00
  0.00000000E+00  0.00000000E+00  0.00000000E+00
  0.00000000E+00  0.00000000E+00  0.00000000E+00
  0.00000000E+00  0.00000000E+00  0.00000000E+00
  0.00000000E+00  0.00000000E+00  0.00000000E+00
  0.00000000E+00  0.00000000E+00  0.00000000E+00
  0.00000000E+00  0.00000000E+00  0.00000000E+00
  0.00000000E+00  0.00000000E+00  0.00000000E+00
  0.00000000E+00  0.00000000E+00  0.00000000E+00
  0.00000000E+00  0.00000000E+00  0.00000000E+00
  0.00000000E+00  0.00000000E+00  0.00000000E+00
  0.00000000E+00  0.00000000E+00  0.00000000E+00
  0.00000000E+00  0.00000000E+00  0.00000000E+00
  0.00000000E+00  0.00000000E+00  0.00000000E+00
  0.00000000E+00  0.00000000E+00  0.00000000E+00
  0.00000000E+00  0.00000000E+00  0.00000000E+00
  0.00000000E+00  0.00000000E+00  0.00000000E+00
  0.00000000E+00  0.00000000E+00  0.00000000E+00
  0.00000000E+00  0.00000000E+00  0.00000000E+00
  0.00000000E+00  0.00000000E+00  0.00000000E+00
  0.00000000E+00  0.00000000E+00  0.00000000E+00
  0.00000000E+00  0.00000000E+00  0.00000000E+00
  0.00000000E+00  0.00000000E+00  0.00000000E+00
  0.00000000E+00  0.00000000E+00  0.00000000E+00
  0.00000000E+00  0.00000000E+00  0.00000000E+00
  0.00000000E+00  0.00000000E+00  0.00000000E+00
  0.00000000E+00  0.00000000E+00  0.00000000E+00
  0.00000000E+00  0.00000000E+00  0.00000000E+00
  0.00000000E+00  0.00000000E+00  0.00000000E+00
  0.00000000E+00  0.00000000E+00  0.00000000E+00
  0.00000000E+00  0.00000000E+00  0.00000000E+00
  0.00000000E+00  0.00000000E+00  0.00000000E+00
