Primitive Cell                          
   1.00000000000000     
    25.6381158266852189   -0.0599322266027643    0.0000000000000000
    -0.0732327741430529   25.6449266908311699    0.0000000000000000
     0.0000000000000000    0.0000000000000000   20.0000000000000000
   N    O    H    C 
    12     8    34    60
Direct
  0.0075035566314838  0.4574540347369762  0.6397609687849126
  0.4768844516775701  0.9921282147301511  0.6384597074369154
  0.9509427399180694  0.9305642438466180  0.5027704947706937
  0.0651990735489818  0.9334801827815582  0.5007735208875275
  0.0669066701948537  0.0479417988715340  0.4974254302080467
  0.9526551278138840  0.0449997245297737  0.5005857092547998
  0.0077689385207123  0.3468247197575636  0.4774157968459818
  0.3663050816671785  0.9896631128258377  0.4756238496808365
  0.0146956244331804  0.6323554233997726  0.5279457440097346
  0.6519188092919848  0.9840874671392470  0.5269353578907996
  0.0108821264584478  0.5223021854079946  0.3670583625756620
  0.5419273074659827  0.9868235125100639  0.3658644759135399
  0.9774035972146393  0.4218276103697534  0.6570236853298894
  0.0367264532949747  0.4821728182106142  0.6776293570655056
  0.4408917107641557  0.0215700550085529  0.6552282626153243
  0.5019494980068018  0.9638890217777885  0.6768718398942610
  0.0388124889907502  0.5603594937228138  0.3525061132769380
  0.9853575385540054  0.4958715115879713  0.3267837654897647
  0.5798619078874623  0.9589704804867338  0.3517366844644911
  0.5156410431998708  0.0117995869520371  0.3251633227282582
  0.9859471291617083  0.6968556044670251  0.6195170140680304
  0.9818083527080432  0.7939158360731682  0.6106394166095441
  0.2128494429144610  0.9572439729280688  0.5910069645707736
  0.3090339841681242  0.9555604563485716  0.5842174075288895
  0.0428918942955363  0.1935325514995796  0.5908602368542333
  0.0443658819633015  0.2897440244276481  0.5843632410206538
  0.7167050808631785  0.0142253386637421  0.6179363136985359
  0.8138275064234008  0.0184291462789474  0.6089678925752153
  0.0114794613279514  0.5533402886287035  0.5963891369263337
  0.0009906685234142  0.3640746639121488  0.5796368585800167
  0.5726988195680534  0.9881825872292396  0.5952672359120541
  0.3834202917467024  0.9978920214500349  0.5777476160002806
  0.0437908922394996  0.6887699079977168  0.4174337495378353
  0.0404193402749158  0.7850970471604910  0.4093130716546796
  0.9053426968377210  0.8101665801155846  0.5082328133662912
  0.8309784264359692  0.8837517999785973  0.5087859517695179
  0.9790348368489745  0.9588856529610439  0.5014644439131999
  0.0387853637663298  0.0196471899389365  0.4989580307226262
  0.1138699356548969  0.8116578244893375  0.5041462463327164
  0.1875236012747692  0.8861019196966495  0.4965564163521918
  0.2047381364076060  0.0209130000613200  0.3921748932287343
  0.3019811473259111  0.0189504450613569  0.3847822434415846
  0.1869040132448347  0.0946769605772815  0.4928939698976507
  0.1126753358662711  0.1682748121094875  0.4919361323553133
  0.8301840494383796  0.0920602009625711  0.5035788842934608
  0.9039697133990572  0.1668328172327662  0.5006686041225308
  0.9735212421681041  0.1851779951688428  0.3951310375006969
  0.9755147056238513  0.2824275882830918  0.3879221228563523
  0.8045154369464882  0.9566918929347068  0.4091711893255905
  0.7081078209697509  0.9534677856700498  0.4172729452668094
  0.0060821974031882  0.4257741470795224  0.4100465185786817
  0.9978110026873210  0.6147677734240773  0.4279540905565753
  0.4454467500136943  0.9916038409393053  0.4085951200372122
  0.6346096236465684  0.0006340738898558  0.4268382481629587
  0.7904597845780330  0.0047934209700813  0.5668072378610916
  0.7364379687616349  0.0025695177103202  0.5720494054035186
  0.0275165501799606  0.2129973282027038  0.5465864232985354
  0.0278886724285030  0.2671774171062893  0.5431531869488850
  0.2865637083562689  0.9709790755224788  0.5423982101632845
  0.2324072492103184  0.9714918815963074  0.5460766042599658
  0.9946708422993211  0.7706678505541049  0.5680965110601690
  0.9969199942739948  0.7166787733697433  0.5733397456197480
  0.0061660856982186  0.4344257899791941  0.5169141748993482
  0.0080672252197544  0.4723406253954323  0.5682569100028729
  0.0102516746680124  0.5254210230576248  0.5553564368735806
  0.0051721621627294  0.3778657647211290  0.5279413829075281
  0.4539008897658547  0.9923508575848032  0.5154779400270755
  0.4917653740977741  0.9910652290571207  0.5669372153783243
  0.5448717137061720  0.9889823764619763  0.5541182863882170
  0.3972982024636309  0.9931296622836001  0.5261961946341742
  0.9108213431998777  0.8521120635060981  0.5068934011324160
  0.8728546314437295  0.8896850820767526  0.5068612699647232
  0.8981014916155985  0.9397196178653147  0.5040214991620715
  0.9606094290221208  0.8778684112704767  0.5050098430026040
  0.0098515349966135  0.8540804318729016  0.5050303492642954
  0.0582772090279846  0.8804582118784126  0.5025809874152927
  0.1181425801819529  0.9409880743568593  0.4987709716000666
  0.1455811780197394  0.8912794260998353  0.4988488267953457
  0.1082669184826912  0.8535490533902390  0.5022284243691431
  0.1440394992243412  0.9897007008794816  0.4960149222406827
  0.1197275669556390  0.0387263460718401  0.4955233856030148
  0.0572517900182206  0.1007025139187121  0.4965186681843790
  0.1070766923667534  0.1263637006246938  0.4937607429645610
  0.1450057298291725  0.0887543680520366  0.4938454606005536
  0.0079645611444192  0.1245301191335670  0.4969281933545275
  0.9595336922868611  0.0980338356122274  0.4989449735775580
  0.8997138739128729  0.0374477374456177  0.5028446837932918
  0.8721972777428775  0.0870906223879828  0.5025538739842759
  0.9095204834652861  0.1249018557239054  0.5006769369309367
  0.8738288422666614  0.9887424575954213  0.5043226646619061
  0.8157581186648244  0.9883665184108779  0.5081808325816723
  0.7059166699578867  0.9854294466601203  0.5177640271106227
  0.7310584702695877  0.9688101024886464  0.4588714142052694
  0.7852356750305347  0.9701372103717674  0.4546080274832249
  0.0076014356814653  0.1826103296297603  0.4937716159452989
  0.0083932388648975  0.2927617296279195  0.4860031240297147
  0.9895083056152814  0.2623961549604203  0.4324917532665467
  0.9884638597510147  0.2082902576990762  0.4367868510502930
  0.2020934927153206  0.9898768191838485  0.4924640224186803
  0.2278145727887946  0.0073642456142125  0.4345188980908077
  0.2819184492307585  0.0062588188615109  0.4300678206577047
  0.3122227780764959  0.9889502409450230  0.4843254707323510
  0.0102886592198672  0.7960618785612894  0.5090695686229054
  0.0275995585172879  0.7656811837463806  0.4550322217475866
  0.0132663621297127  0.6863050232347376  0.5186981500275820
  0.0290160283799992  0.7115598012142925  0.4593656819046927
  0.0097728398932162  0.5445709693758118  0.4896447762362399
  0.0086614035416943  0.5067191426273965  0.4382870557446950
  0.0068087866026403  0.4536685297195291  0.4511167487798176
  0.0073250845513400  0.6010494590186042  0.4785428766622175
  0.5641549499462784  0.9889482033210228  0.4884698865003116
  0.5263408537752809  0.9895707342966062  0.4370378142059650
  0.4732768471909594  0.9913099808604144  0.4497512485975363
  0.6207166088582881  0.9913170499426300  0.4774628956885820
 
  0.00000000E+00  0.00000000E+00  0.00000000E+00
  0.00000000E+00  0.00000000E+00  0.00000000E+00
  0.00000000E+00  0.00000000E+00  0.00000000E+00
  0.00000000E+00  0.00000000E+00  0.00000000E+00
  0.00000000E+00  0.00000000E+00  0.00000000E+00
  0.00000000E+00  0.00000000E+00  0.00000000E+00
  0.00000000E+00  0.00000000E+00  0.00000000E+00
  0.00000000E+00  0.00000000E+00  0.00000000E+00
  0.00000000E+00  0.00000000E+00  0.00000000E+00
  0.00000000E+00  0.00000000E+00  0.00000000E+00
  0.00000000E+00  0.00000000E+00  0.00000000E+00
  0.00000000E+00  0.00000000E+00  0.00000000E+00
  0.00000000E+00  0.00000000E+00  0.00000000E+00
  0.00000000E+00  0.00000000E+00  0.00000000E+00
  0.00000000E+00  0.00000000E+00  0.00000000E+00
  0.00000000E+00  0.00000000E+00  0.00000000E+00
  0.00000000E+00  0.00000000E+00  0.00000000E+00
  0.00000000E+00  0.00000000E+00  0.00000000E+00
  0.00000000E+00  0.00000000E+00  0.00000000E+00
  0.00000000E+00  0.00000000E+00  0.00000000E+00
  0.00000000E+00  0.00000000E+00  0.00000000E+00
  0.00000000E+00  0.00000000E+00  0.00000000E+00
  0.00000000E+00  0.00000000E+00  0.00000000E+00
  0.00000000E+00  0.00000000E+00  0.00000000E+00
  0.00000000E+00  0.00000000E+00  0.00000000E+00
  0.00000000E+00  0.00000000E+00  0.00000000E+00
  0.00000000E+00  0.00000000E+00  0.00000000E+00
  0.00000000E+00  0.00000000E+00  0.00000000E+00
  0.00000000E+00  0.00000000E+00  0.00000000E+00
  0.00000000E+00  0.00000000E+00  0.00000000E+00
  0.00000000E+00  0.00000000E+00  0.00000000E+00
  0.00000000E+00  0.00000000E+00  0.00000000E+00
  0.00000000E+00  0.00000000E+00  0.00000000E+00
  0.00000000E+00  0.00000000E+00  0.00000000E+00
  0.00000000E+00  0.00000000E+00  0.00000000E+00
  0.00000000E+00  0.00000000E+00  0.00000000E+00
  0.00000000E+00  0.00000000E+00  0.00000000E+00
  0.00000000E+00  0.00000000E+00  0.00000000E+00
  0.00000000E+00  0.00000000E+00  0.00000000E+00
  0.00000000E+00  0.00000000E+00  0.00000000E+00
  0.00000000E+00  0.00000000E+00  0.00000000E+00
  0.00000000E+00  0.00000000E+00  0.00000000E+00
  0.00000000E+00  0.00000000E+00  0.00000000E+00
  0.00000000E+00  0.00000000E+00  0.00000000E+00
  0.00000000E+00  0.00000000E+00  0.00000000E+00
  0.00000000E+00  0.00000000E+00  0.00000000E+00
  0.00000000E+00  0.00000000E+00  0.00000000E+00
  0.00000000E+00  0.00000000E+00  0.00000000E+00
  0.00000000E+00  0.00000000E+00  0.00000000E+00
  0.00000000E+00  0.00000000E+00  0.00000000E+00
  0.00000000E+00  0.00000000E+00  0.00000000E+00
  0.00000000E+00  0.00000000E+00  0.00000000E+00
  0.00000000E+00  0.00000000E+00  0.00000000E+00
  0.00000000E+00  0.00000000E+00  0.00000000E+00
  0.00000000E+00  0.00000000E+00  0.00000000E+00
  0.00000000E+00  0.00000000E+00  0.00000000E+00
  0.00000000E+00  0.00000000E+00  0.00000000E+00
  0.00000000E+00  0.00000000E+00  0.00000000E+00
  0.00000000E+00  0.00000000E+00  0.00000000E+00
  0.00000000E+00  0.00000000E+00  0.00000000E+00
  0.00000000E+00  0.00000000E+00  0.00000000E+00
  0.00000000E+00  0.00000000E+00  0.00000000E+00
  0.00000000E+00  0.00000000E+00  0.00000000E+00
  0.00000000E+00  0.00000000E+00  0.00000000E+00
  0.00000000E+00  0.00000000E+00  0.00000000E+00
  0.00000000E+00  0.00000000E+00  0.00000000E+00
  0.00000000E+00  0.00000000E+00  0.00000000E+00
  0.00000000E+00  0.00000000E+00  0.00000000E+00
  0.00000000E+00  0.00000000E+00  0.00000000E+00
  0.00000000E+00  0.00000000E+00  0.00000000E+00
  0.00000000E+00  0.00000000E+00  0.00000000E+00
  0.00000000E+00  0.00000000E+00  0.00000000E+00
  0.00000000E+00  0.00000000E+00  0.00000000E+00
  0.00000000E+00  0.00000000E+00  0.00000000E+00
  0.00000000E+00  0.00000000E+00  0.00000000E+00
  0.00000000E+00  0.00000000E+00  0.00000000E+00
  0.00000000E+00  0.00000000E+00  0.00000000E+00
  0.00000000E+00  0.00000000E+00  0.00000000E+00
  0.00000000E+00  0.00000000E+00  0.00000000E+00
  0.00000000E+00  0.00000000E+00  0.00000000E+00
  0.00000000E+00  0.00000000E+00  0.00000000E+00
  0.00000000E+00  0.00000000E+00  0.00000000E+00
  0.00000000E+00  0.00000000E+00  0.00000000E+00
  0.00000000E+00  0.00000000E+00  0.00000000E+00
  0.00000000E+00  0.00000000E+00  0.00000000E+00
  0.00000000E+00  0.00000000E+00  0.00000000E+00
  0.00000000E+00  0.00000000E+00  0.00000000E+00
  0.00000000E+00  0.00000000E+00  0.00000000E+00
  0.00000000E+00  0.00000000E+00  0.00000000E+00
  0.00000000E+00  0.00000000E+00  0.00000000E+00
  0.00000000E+00  0.00000000E+00  0.00000000E+00
  0.00000000E+00  0.00000000E+00  0.00000000E+00
  0.00000000E+00  0.00000000E+00  0.00000000E+00
  0.00000000E+00  0.00000000E+00  0.00000000E+00
  0.00000000E+00  0.00000000E+00  0.00000000E+00
  0.00000000E+00  0.00000000E+00  0.00000000E+00
  0.00000000E+00  0.00000000E+00  0.00000000E+00
  0.00000000E+00  0.00000000E+00  0.00000000E+00
  0.00000000E+00  0.00000000E+00  0.00000000E+00
  0.00000000E+00  0.00000000E+00  0.00000000E+00
  0.00000000E+00  0.00000000E+00  0.00000000E+00
  0.00000000E+00  0.00000000E+00  0.00000000E+00
  0.00000000E+00  0.00000000E+00  0.00000000E+00
  0.00000000E+00  0.00000000E+00  0.00000000E+00
  0.00000000E+00  0.00000000E+00  0.00000000E+00
  0.00000000E+00  0.00000000E+00  0.00000000E+00
  0.00000000E+00  0.00000000E+00  0.00000000E+00
  0.00000000E+00  0.00000000E+00  0.00000000E+00
  0.00000000E+00  0.00000000E+00  0.00000000E+00
  0.00000000E+00  0.00000000E+00  0.00000000E+00
  0.00000000E+00  0.00000000E+00  0.00000000E+00
  0.00000000E+00  0.00000000E+00  0.00000000E+00
  0.00000000E+00  0.00000000E+00  0.00000000E+00
  0.00000000E+00  0.00000000E+00  0.00000000E+00
