K-Path Generated by VASPKIT.
   20
Line-Mode
Reciprocal
   0.0000000000   0.0000000000   0.0000000000     \Gamma          
   0.5000000000  -0.5000000000   0.0000000000     X              
 
   0.5000000000  -0.5000000000   0.0000000000     X              
   0.5017637145  -0.4982350286   0.0000000000     H_1            
 
   0.5017637145  -0.4982350286   0.0000000000     H_1            
   0.5000000000   0.0000000000   0.0000000000     C              
 
   0.5000000000   0.0000000000   0.0000000000     C              
   0.4982362855   0.4982350286   0.0000000000     H              
 
   0.4982362855   0.4982350286   0.0000000000     H              
   0.0000000000   0.5000000000   0.0000000000     Y              
 
   0.0000000000   0.5000000000   0.0000000000     Y              
   0.0000000000   0.0000000000   0.0000000000     \Gamma          
 
