Primitive Cell                          
   1.00000000000000     
    29.1124641906342205    0.0020383811843898    0.0000000000000000
   -14.5542801477227126   25.1209522321160819    0.0000000000000000
     0.0000000000000000    0.0000000000000000   20.0000000000000000
   H    C    N 
    42    48    12
Direct
  0.3668170266225061  0.5765694991026180  0.5022904397023780
  0.2073640823362624  0.6305004030575390  0.5031820753734024
  0.4208252665451013  0.7906315761032445  0.5061808899740114
  0.6384670216035744  0.4286036528366992  0.4888391166386938
  0.7881530567323125  0.3611063522331079  0.4895180828467574
  0.5708245106815184  0.2110536878844727  0.4884571351678559
  0.4980740275204170  0.9560882528878665  0.5957249355619751
  0.4300904506894696  0.8607064134686198  0.6003909355955415
  0.5829151126337564  0.1367963351633605  0.5980545318372847
  0.5123592157609593  0.0422293491763526  0.6044378698959960
  0.3270840925437568  0.7919927864996268  0.5514763059225132
  0.3277954257650393  0.7907470704414052  0.4633400936581964
  0.4537054276805321  0.4986293848096466  0.5935740621422525
  0.4263512740312194  0.5665126728430323  0.5976483523427589
  0.5497225030310631  0.4145790246272369  0.5985164660360311
  0.5251203482982305  0.4845760040080336  0.6040957378032203
  0.4617024922195299  0.6702146859238312  0.5495214782824647
  0.4607193645022463  0.6700216994813033  0.4613513964907838
  0.0432160053208506  0.5433397093473644  0.5942469789914071
  0.1382898240294921  0.5704934875712482  0.5973417552986149
  0.8629314823303886  0.4485034484310049  0.5991881765949927
  0.9570732395471495  0.4718632160554321  0.6044894154403551
  0.2058525925981627  0.5349449199508882  0.5476252988971098
  0.2063505273135817  0.5367075778483610  0.4594832828549684
  0.5227606326698435  0.0275308470089826  0.3912686683159521
  0.5922588621786673  0.1225022976352506  0.3850522481372138
  0.3662167953654318  0.8749653332967995  0.4124939463208435
  0.4326503921842217  0.9709979765951289  0.4090884397762764
  0.6641734904968359  0.2047335058092514  0.5272829222474940
  0.6566273110267531  0.2025837462102089  0.4395617089715245
  0.5037939405375269  0.4756594085113832  0.3902295103612943
  0.5299475999138608  0.4067685014272300  0.3848798185752074
  0.5067935030043600  0.6318579399526172  0.4112907424244199
  0.5363563247302423  0.5655541418673877  0.4085141458003960
  0.5392699310850944  0.3348579306973605  0.5285797955496676
  0.5438976101578845  0.3413897889532365  0.4407417967478224
  0.9699943260541417  0.4950445262962688  0.3909502414417005
  0.8753930556852580  0.4700621694187888  0.3857978667564694
  0.1216633892292194  0.4903104893114190  0.4102532799035501
  0.0259634943692078  0.4609845939211823  0.4084358151481737
  0.7944374837701673  0.4604365053392669  0.5297524017347612
  0.7964669605789680  0.4564641319051645  0.4418274121942858
  0.3552608260544048  0.7175740200070138  0.5097266513334162
  0.3597025721708107  0.6422448425351135  0.5083529607344701
  0.2800612273470122  0.6376653595225577  0.5080726701455518
  0.6392913906072906  0.2817049942211156  0.4933795127656708
  0.6407396310358848  0.3600886486507022  0.4933612105835650
  0.7175223550438758  0.3587605864648040  0.4933928242496535
  0.3934801858196195  0.8608954070512809  0.5064215908776717
  0.4707680995812638  0.9708085783786871  0.5018137655595041
  0.4686905646361978  0.9387316605900793  0.5558071255781840
  0.4306361903827494  0.8848403607262370  0.5581544496197282
  0.5696385150220067  0.1128005417514260  0.5525417406525150
  0.5301259277415227  0.0594655602997065  0.5561539082454061
  0.3536061066826406  0.8021201273959164  0.5077804806984716
  0.4643741506255736  0.6039143854256039  0.5044444686770504
  0.4969496540840481  0.5267113718012979  0.5005282409077196
  0.4662573688998037  0.5283172837464249  0.5538756094493422
  0.4504560132974831  0.5663313623714217  0.5558925364277627
  0.5397640035328379  0.4281013214385823  0.5526613828759039
  0.5255786812418748  0.4673008424015208  0.5558082345208746
  0.4456933690296410  0.6438801498975906  0.5055223335699068
  0.1369128062466629  0.5326728833055725  0.5036574108577767
  0.0273447435575989  0.5003467372970007  0.5008280267259977
  0.0599770714595493  0.5308035905787349  0.5541720705260929
  0.1137026389007332  0.5464992907689066  0.5556327743654776
  0.8864195119095228  0.4586023542609681  0.5533394485195231
  0.9395327676491831  0.4720824497210216  0.5563450343173599
  0.1955042302190080  0.5514001715613972  0.5041514303967531
  0.3950557983837797  0.8927890927443016  0.4529871185753294
  0.4328295473538972  0.9468527516220533  0.4507929509232085
  0.5121147025809449  0.0277015278914803  0.4982687871999261
  0.5351316282657592  0.0515035222117817  0.4367561524290551
  0.5746015680039562  0.1049301603540584  0.4333039913085699
  0.5925598606336848  0.1363264294216151  0.4910517003549657
  0.6346554805837812  0.1942697641901532  0.4871384564043808
  0.4952732954737229  0.6027267127346718  0.4515813387507635
  0.5115375311526975  0.5650087471602916  0.4497361490505440
  0.5127331087848788  0.4855989574130604  0.4975072399309681
  0.5147536781710329  0.4631433676462464  0.4360721669638181
  0.5290885037234361  0.4240069126782871  0.4330895022856893
  0.5416854153576338  0.4058065050327286  0.4912515202582313
  0.5578763759813867  0.3640299214505092  0.4878635086155683
  0.1044421049646047  0.5018330597754783  0.4509133931179150
  0.0505572183275618  0.4856926818057019  0.4496101865692097
  0.9706661417494686  0.4850941998004927  0.4980417548168958
  0.9464724952650272  0.4839368945064493  0.4367520415137847
  0.8932748902244327  0.4702921831139690  0.4338983329534543
  0.8625049225886841  0.4575840037030687  0.4920601005483647
  0.8047607304446629  0.4419417026802677  0.4887116463980732
  0.3868678497623392  0.6956425887862352  0.5092819776494579
  0.3061561619404287  0.6105052066588073  0.5078176060997919
  0.3020197153626896  0.6913564601546582  0.5090474520618855
  0.3879979159693860  0.6166517484440348  0.5076139940263076
  0.2261805824332015  0.6092366004836052  0.5070249974662744
  0.3807886933789177  0.7715984385809591  0.5107554176776716
  0.6106424203793566  0.3068180300181851  0.4932749359880546
  0.6944923671664895  0.3888732977856293  0.4933074361093901
  0.6924142570152370  0.3048278209595665  0.4933006164503837
  0.6153369616117104  0.3886107321309069  0.4933726380120333
  0.7714351471911343  0.3843208303146710  0.4934147204380821
  0.6106518536204391  0.2276382216661901  0.4934988305839099
 
  0.00000000E+00  0.00000000E+00  0.00000000E+00
  0.00000000E+00  0.00000000E+00  0.00000000E+00
  0.00000000E+00  0.00000000E+00  0.00000000E+00
  0.00000000E+00  0.00000000E+00  0.00000000E+00
  0.00000000E+00  0.00000000E+00  0.00000000E+00
  0.00000000E+00  0.00000000E+00  0.00000000E+00
  0.00000000E+00  0.00000000E+00  0.00000000E+00
  0.00000000E+00  0.00000000E+00  0.00000000E+00
  0.00000000E+00  0.00000000E+00  0.00000000E+00
  0.00000000E+00  0.00000000E+00  0.00000000E+00
  0.00000000E+00  0.00000000E+00  0.00000000E+00
  0.00000000E+00  0.00000000E+00  0.00000000E+00
  0.00000000E+00  0.00000000E+00  0.00000000E+00
  0.00000000E+00  0.00000000E+00  0.00000000E+00
  0.00000000E+00  0.00000000E+00  0.00000000E+00
  0.00000000E+00  0.00000000E+00  0.00000000E+00
  0.00000000E+00  0.00000000E+00  0.00000000E+00
  0.00000000E+00  0.00000000E+00  0.00000000E+00
  0.00000000E+00  0.00000000E+00  0.00000000E+00
  0.00000000E+00  0.00000000E+00  0.00000000E+00
  0.00000000E+00  0.00000000E+00  0.00000000E+00
  0.00000000E+00  0.00000000E+00  0.00000000E+00
  0.00000000E+00  0.00000000E+00  0.00000000E+00
  0.00000000E+00  0.00000000E+00  0.00000000E+00
  0.00000000E+00  0.00000000E+00  0.00000000E+00
  0.00000000E+00  0.00000000E+00  0.00000000E+00
  0.00000000E+00  0.00000000E+00  0.00000000E+00
  0.00000000E+00  0.00000000E+00  0.00000000E+00
  0.00000000E+00  0.00000000E+00  0.00000000E+00
  0.00000000E+00  0.00000000E+00  0.00000000E+00
  0.00000000E+00  0.00000000E+00  0.00000000E+00
  0.00000000E+00  0.00000000E+00  0.00000000E+00
  0.00000000E+00  0.00000000E+00  0.00000000E+00
  0.00000000E+00  0.00000000E+00  0.00000000E+00
  0.00000000E+00  0.00000000E+00  0.00000000E+00
  0.00000000E+00  0.00000000E+00  0.00000000E+00
  0.00000000E+00  0.00000000E+00  0.00000000E+00
  0.00000000E+00  0.00000000E+00  0.00000000E+00
  0.00000000E+00  0.00000000E+00  0.00000000E+00
  0.00000000E+00  0.00000000E+00  0.00000000E+00
  0.00000000E+00  0.00000000E+00  0.00000000E+00
  0.00000000E+00  0.00000000E+00  0.00000000E+00
  0.00000000E+00  0.00000000E+00  0.00000000E+00
  0.00000000E+00  0.00000000E+00  0.00000000E+00
  0.00000000E+00  0.00000000E+00  0.00000000E+00
  0.00000000E+00  0.00000000E+00  0.00000000E+00
  0.00000000E+00  0.00000000E+00  0.00000000E+00
  0.00000000E+00  0.00000000E+00  0.00000000E+00
  0.00000000E+00  0.00000000E+00  0.00000000E+00
  0.00000000E+00  0.00000000E+00  0.00000000E+00
  0.00000000E+00  0.00000000E+00  0.00000000E+00
  0.00000000E+00  0.00000000E+00  0.00000000E+00
  0.00000000E+00  0.00000000E+00  0.00000000E+00
  0.00000000E+00  0.00000000E+00  0.00000000E+00
  0.00000000E+00  0.00000000E+00  0.00000000E+00
  0.00000000E+00  0.00000000E+00  0.00000000E+00
  0.00000000E+00  0.00000000E+00  0.00000000E+00
  0.00000000E+00  0.00000000E+00  0.00000000E+00
  0.00000000E+00  0.00000000E+00  0.00000000E+00
  0.00000000E+00  0.00000000E+00  0.00000000E+00
  0.00000000E+00  0.00000000E+00  0.00000000E+00
  0.00000000E+00  0.00000000E+00  0.00000000E+00
  0.00000000E+00  0.00000000E+00  0.00000000E+00
  0.00000000E+00  0.00000000E+00  0.00000000E+00
  0.00000000E+00  0.00000000E+00  0.00000000E+00
  0.00000000E+00  0.00000000E+00  0.00000000E+00
  0.00000000E+00  0.00000000E+00  0.00000000E+00
  0.00000000E+00  0.00000000E+00  0.00000000E+00
  0.00000000E+00  0.00000000E+00  0.00000000E+00
  0.00000000E+00  0.00000000E+00  0.00000000E+00
  0.00000000E+00  0.00000000E+00  0.00000000E+00
  0.00000000E+00  0.00000000E+00  0.00000000E+00
  0.00000000E+00  0.00000000E+00  0.00000000E+00
  0.00000000E+00  0.00000000E+00  0.00000000E+00
  0.00000000E+00  0.00000000E+00  0.00000000E+00
  0.00000000E+00  0.00000000E+00  0.00000000E+00
  0.00000000E+00  0.00000000E+00  0.00000000E+00
  0.00000000E+00  0.00000000E+00  0.00000000E+00
  0.00000000E+00  0.00000000E+00  0.00000000E+00
  0.00000000E+00  0.00000000E+00  0.00000000E+00
  0.00000000E+00  0.00000000E+00  0.00000000E+00
  0.00000000E+00  0.00000000E+00  0.00000000E+00
  0.00000000E+00  0.00000000E+00  0.00000000E+00
  0.00000000E+00  0.00000000E+00  0.00000000E+00
  0.00000000E+00  0.00000000E+00  0.00000000E+00
  0.00000000E+00  0.00000000E+00  0.00000000E+00
  0.00000000E+00  0.00000000E+00  0.00000000E+00
  0.00000000E+00  0.00000000E+00  0.00000000E+00
  0.00000000E+00  0.00000000E+00  0.00000000E+00
  0.00000000E+00  0.00000000E+00  0.00000000E+00
  0.00000000E+00  0.00000000E+00  0.00000000E+00
  0.00000000E+00  0.00000000E+00  0.00000000E+00
  0.00000000E+00  0.00000000E+00  0.00000000E+00
  0.00000000E+00  0.00000000E+00  0.00000000E+00
  0.00000000E+00  0.00000000E+00  0.00000000E+00
  0.00000000E+00  0.00000000E+00  0.00000000E+00
  0.00000000E+00  0.00000000E+00  0.00000000E+00
  0.00000000E+00  0.00000000E+00  0.00000000E+00
  0.00000000E+00  0.00000000E+00  0.00000000E+00
  0.00000000E+00  0.00000000E+00  0.00000000E+00
  0.00000000E+00  0.00000000E+00  0.00000000E+00
  0.00000000E+00  0.00000000E+00  0.00000000E+00
