Primitive Cell                          
   1.00000000000000     
    29.8689958508274209   -0.0139389644082845    0.0000000000000000
   -14.9465717789419301   25.9066583442221479    0.0000000000000000
     0.0000000000000000    0.0000000000000000   20.0000000000000000
   H    O    N    C 
    36    12    18    54
Direct
  0.7021998087654566  0.2733657325831800  0.4931957677863963
  0.5708442377452485  0.2965694113518893  0.4934747642611725
  0.7254694720375028  0.4277393303488211  0.4934314736866767
  0.6551552630629587  0.4430465740233487  0.4930501262840963
  0.5555903810899139  0.2109418025598302  0.4927388588868098
  0.7880589457831277  0.3439525940690871  0.4926375741364097
  0.2995558517658949  0.7274304613244382  0.5073160431860870
  0.4281111076669646  0.6998117556250918  0.5081488384183785
  0.2718661780562996  0.5713993757708309  0.5086265987308423
  0.3425399518635430  0.5542080779504488  0.5022379185833401
  0.4453840789979395  0.7875934517903502  0.5019262741877100
  0.2115538008313393  0.6566938246079275  0.5014933359187523
  0.6209488084085280  0.4807125902865579  0.5530879840611149
  0.4871192392527703  0.5156984265903972  0.6102552453936099
  0.8598625736359864  0.3784331133804315  0.5529268107250047
  0.0285432423207581  0.5129884431916878  0.6099180329198290
  0.5178293784236203  0.1388291490013387  0.5519908257476729
  0.4830633304136711  0.9702061271588320  0.6087095597665808
  0.4434359357699265  0.5823067430413502  0.4089496978156788
  0.4528056814732153  0.4279354573475374  0.4434834085399402
  0.4895904506551005  0.5510785419037489  0.3438934474087674
  0.5163849249694792  0.5174476023043582  0.3778796287235267
  0.4485014260986588  0.3454072143822842  0.4160355736342183
  0.4999597656000034  0.3362273365782400  0.4356430825636366
  0.1388149847033588  0.5553459481971146  0.4086213411168060
  0.9746604091782345  0.5465166477688541  0.4432655340243485
  0.0612750637967991  0.5086478604483773  0.3438649440068389
  0.0008561465715076  0.4819245908610483  0.3779823353403131
  0.8960406981285658  0.5504928906891635  0.4161221226548548
  0.8354978660196934  0.4989284650196026  0.4357887236541771
  0.4172235274227916  0.8606917010888182  0.4066071131638935
  0.5716375540715859  0.0244603438891815  0.4423137898575717
  0.4483613471276371  0.9383171337967369  0.3421103627799837
  0.4817067560478989  0.9985705659173050  0.3766124095484216
  0.6538654205735597  0.1028255555691402  0.4146202611050143
  0.6630105482203774  0.1633091165227967  0.4346246421981590
  0.6261881524478525  0.5555258513899872  0.6046909610512330
  0.4549923602362895  0.5496638390381605  0.6877056966599326
  0.5942192995091489  0.5899327861927333  0.5358264267111039
  0.4159352829793193  0.5897601011935549  0.6477447223591710
  0.9303249147355217  0.3742238253636714  0.6050754577507362
  0.0948000493469010  0.5452231288091980  0.6873465754319525
  0.9957069209766942  0.4051525097554247  0.5345288873189773
  0.1739886024177935  0.5837239747844691  0.6472673543792880
  0.4425290226858465  0.0680723816441073  0.6032088956535162
  0.4483413855944320  0.9039456022643151  0.6857810077621878
  0.4086766216830640  0.0033510441901257  0.5317839174817323
  0.4087452620280416  0.8249346367406645  0.6454925895616270
  0.5969426817079651  0.5526991231735394  0.5585085820557296
  0.4403901835384900  0.5664357485758202  0.6404198798748979
  0.4193607630414107  0.6102771849713520  0.5187125663262577
  0.9561058424140896  0.4028460646284984  0.5580978927617508
  0.1261635372380709  0.5594834224631953  0.6400280857028662
  0.1909552958095802  0.5800509993328333  0.5183251486296783
  0.4457969948760976  0.0426509930657275  0.5561159262362310
  0.4320170021243257  0.8726936753043120  0.6383365270711394
  0.3890368658728605  0.8082808562422628  0.5159885077737556
  0.4895082999452214  0.5285505892615987  0.3817387823335281
  0.4863079527749221  0.3608254238018915  0.4278900296434642
  0.5769387405754500  0.3862983281824270  0.4898048744574766
  0.0388047603216677  0.5089711817746334  0.3815664969451191
  0.8738006960525553  0.5127226478958917  0.4279780652569585
  0.8090031383419145  0.4219543267859009  0.4897084876067979
  0.4707490351680619  0.9606495120893328  0.3801485760538270
  0.6384044531349460  0.1250863446303541  0.4267582536643957
  0.6125907232616186  0.1898226986525202  0.4893334242216412
  0.6456340013116630  0.3659501965097789  0.4927899309331707
  0.6991536801256970  0.3860696725741448  0.4929183798852677
  0.7201137110477518  0.3530735128603126  0.4926542810204069
  0.6867578709568960  0.2996169957565087  0.4927881743213050
  0.6327381474715850  0.2786800683566852  0.4926774124780806
  0.6125777172628588  0.3120016756498245  0.4929437359869837
  0.7758614280161780  0.3732679117355175  0.4919610220247463
  0.5971191533199089  0.2230108050743951  0.4919069221301200
  0.6256185848738696  0.4015997855674627  0.4921958139925664
  0.3523434053039978  0.6318174703532407  0.5080166598989351
  0.2991079690568128  0.6128942660280146  0.5079157551625855
  0.2795418867298523  0.6470464038458204  0.5076657527522386
  0.3138423025093431  0.7002115879697399  0.5071480025372779
  0.3676187050592290  0.7197612775735180  0.5072307769823539
  0.3865596560461881  0.6855171926155776  0.5076137476844451
  0.2237160100379612  0.6276741840772289  0.5083868716303570
  0.4040766744817503  0.7755138292370063  0.5075928108892427
  0.3716702412543782  0.5953909499948296  0.5089143156926070
  0.4395326559624806  0.5774172008919507  0.5157574760467796
  0.4526641503139288  0.5581308411886425  0.5727872779494021
  0.4778536380671810  0.5297077973487987  0.5650164558431143
  0.4907911398458964  0.5192495452620207  0.5026656834139018
  0.5648901759068892  0.5020956807179928  0.5270357118937241
  0.5850166775730159  0.4689539404117014  0.5262137285695587
  0.1378743966964322  0.5598447406424825  0.5153765635664911
  0.1054863406437150  0.5470243190407089  0.5724327011803041
  0.0518197430632839  0.5219446971403414  0.5646976150270646
  0.0283822956375701  0.5087117860642607  0.5023760694723975
  0.9372484514684700  0.4346513885232355  0.5267371994868242
  0.8839128907439076  0.4143380760731290  0.5260340461900057
  0.4218381795109494  0.8612999906125793  0.5134390812954521
  0.4408075107444631  0.8934765012496158  0.5707447658967055
  0.4692595191628826  0.9471067057820548  0.5633029288744069
  0.4799472141460868  0.9706872537282365  0.5010718466590944
  0.4967851447355187  0.0616289011795246  0.5254848946168025
  0.5298353924176524  0.1148901467652124  0.5251180982697363
  0.4778979300355175  0.5382184391315263  0.4448677658742781
  0.4523517365030045  0.5665017067202456  0.4528368851103508
  0.5167245940280054  0.4880761288515600  0.4970956445833039
  0.5595324946590239  0.4216933998587038  0.4927808455082072
  0.5109665452425247  0.4066075852559621  0.4615795338223947
  0.4907691180440494  0.4401538980162556  0.4651206594602399
  0.0602183894748620  0.5211265070935625  0.4445935272738026
  0.1140908249002877  0.5467075831449222  0.4524886212734245
  0.9712200961716277  0.4827741746040672  0.4967867209981378
  0.8619070528717643  0.4396380684160093  0.4926421669420762
  0.8951961873319263  0.4882172200321335  0.4614943431285852
  0.9490347971900377  0.5085791775085795  0.4649139602935506
  0.4610891012191018  0.9390653531639046  0.4430680137063163
  0.4328958863709786  0.8852461291914935  0.4506610174765129
  0.5111189708394335  0.0277653577252579  0.4956613482786025
  0.5772983176881041  0.1369726330915455  0.4919574016642940
  0.5925922595242525  0.1037637592973297  0.4605507371509461
  0.5592000390091272  0.0499938213562885  0.4639456682068612
 
  0.00000000E+00  0.00000000E+00  0.00000000E+00
  0.00000000E+00  0.00000000E+00  0.00000000E+00
  0.00000000E+00  0.00000000E+00  0.00000000E+00
  0.00000000E+00  0.00000000E+00  0.00000000E+00
  0.00000000E+00  0.00000000E+00  0.00000000E+00
  0.00000000E+00  0.00000000E+00  0.00000000E+00
  0.00000000E+00  0.00000000E+00  0.00000000E+00
  0.00000000E+00  0.00000000E+00  0.00000000E+00
  0.00000000E+00  0.00000000E+00  0.00000000E+00
  0.00000000E+00  0.00000000E+00  0.00000000E+00
  0.00000000E+00  0.00000000E+00  0.00000000E+00
  0.00000000E+00  0.00000000E+00  0.00000000E+00
  0.00000000E+00  0.00000000E+00  0.00000000E+00
  0.00000000E+00  0.00000000E+00  0.00000000E+00
  0.00000000E+00  0.00000000E+00  0.00000000E+00
  0.00000000E+00  0.00000000E+00  0.00000000E+00
  0.00000000E+00  0.00000000E+00  0.00000000E+00
  0.00000000E+00  0.00000000E+00  0.00000000E+00
  0.00000000E+00  0.00000000E+00  0.00000000E+00
  0.00000000E+00  0.00000000E+00  0.00000000E+00
  0.00000000E+00  0.00000000E+00  0.00000000E+00
  0.00000000E+00  0.00000000E+00  0.00000000E+00
  0.00000000E+00  0.00000000E+00  0.00000000E+00
  0.00000000E+00  0.00000000E+00  0.00000000E+00
  0.00000000E+00  0.00000000E+00  0.00000000E+00
  0.00000000E+00  0.00000000E+00  0.00000000E+00
  0.00000000E+00  0.00000000E+00  0.00000000E+00
  0.00000000E+00  0.00000000E+00  0.00000000E+00
  0.00000000E+00  0.00000000E+00  0.00000000E+00
  0.00000000E+00  0.00000000E+00  0.00000000E+00
  0.00000000E+00  0.00000000E+00  0.00000000E+00
  0.00000000E+00  0.00000000E+00  0.00000000E+00
  0.00000000E+00  0.00000000E+00  0.00000000E+00
  0.00000000E+00  0.00000000E+00  0.00000000E+00
  0.00000000E+00  0.00000000E+00  0.00000000E+00
  0.00000000E+00  0.00000000E+00  0.00000000E+00
  0.00000000E+00  0.00000000E+00  0.00000000E+00
  0.00000000E+00  0.00000000E+00  0.00000000E+00
  0.00000000E+00  0.00000000E+00  0.00000000E+00
  0.00000000E+00  0.00000000E+00  0.00000000E+00
  0.00000000E+00  0.00000000E+00  0.00000000E+00
  0.00000000E+00  0.00000000E+00  0.00000000E+00
  0.00000000E+00  0.00000000E+00  0.00000000E+00
  0.00000000E+00  0.00000000E+00  0.00000000E+00
  0.00000000E+00  0.00000000E+00  0.00000000E+00
  0.00000000E+00  0.00000000E+00  0.00000000E+00
  0.00000000E+00  0.00000000E+00  0.00000000E+00
  0.00000000E+00  0.00000000E+00  0.00000000E+00
  0.00000000E+00  0.00000000E+00  0.00000000E+00
  0.00000000E+00  0.00000000E+00  0.00000000E+00
  0.00000000E+00  0.00000000E+00  0.00000000E+00
  0.00000000E+00  0.00000000E+00  0.00000000E+00
  0.00000000E+00  0.00000000E+00  0.00000000E+00
  0.00000000E+00  0.00000000E+00  0.00000000E+00
  0.00000000E+00  0.00000000E+00  0.00000000E+00
  0.00000000E+00  0.00000000E+00  0.00000000E+00
  0.00000000E+00  0.00000000E+00  0.00000000E+00
  0.00000000E+00  0.00000000E+00  0.00000000E+00
  0.00000000E+00  0.00000000E+00  0.00000000E+00
  0.00000000E+00  0.00000000E+00  0.00000000E+00
  0.00000000E+00  0.00000000E+00  0.00000000E+00
  0.00000000E+00  0.00000000E+00  0.00000000E+00
  0.00000000E+00  0.00000000E+00  0.00000000E+00
  0.00000000E+00  0.00000000E+00  0.00000000E+00
  0.00000000E+00  0.00000000E+00  0.00000000E+00
  0.00000000E+00  0.00000000E+00  0.00000000E+00
  0.00000000E+00  0.00000000E+00  0.00000000E+00
  0.00000000E+00  0.00000000E+00  0.00000000E+00
  0.00000000E+00  0.00000000E+00  0.00000000E+00
  0.00000000E+00  0.00000000E+00  0.00000000E+00
  0.00000000E+00  0.00000000E+00  0.00000000E+00
  0.00000000E+00  0.00000000E+00  0.00000000E+00
  0.00000000E+00  0.00000000E+00  0.00000000E+00
  0.00000000E+00  0.00000000E+00  0.00000000E+00
  0.00000000E+00  0.00000000E+00  0.00000000E+00
  0.00000000E+00  0.00000000E+00  0.00000000E+00
  0.00000000E+00  0.00000000E+00  0.00000000E+00
  0.00000000E+00  0.00000000E+00  0.00000000E+00
  0.00000000E+00  0.00000000E+00  0.00000000E+00
  0.00000000E+00  0.00000000E+00  0.00000000E+00
  0.00000000E+00  0.00000000E+00  0.00000000E+00
  0.00000000E+00  0.00000000E+00  0.00000000E+00
  0.00000000E+00  0.00000000E+00  0.00000000E+00
  0.00000000E+00  0.00000000E+00  0.00000000E+00
  0.00000000E+00  0.00000000E+00  0.00000000E+00
  0.00000000E+00  0.00000000E+00  0.00000000E+00
  0.00000000E+00  0.00000000E+00  0.00000000E+00
  0.00000000E+00  0.00000000E+00  0.00000000E+00
  0.00000000E+00  0.00000000E+00  0.00000000E+00
  0.00000000E+00  0.00000000E+00  0.00000000E+00
  0.00000000E+00  0.00000000E+00  0.00000000E+00
  0.00000000E+00  0.00000000E+00  0.00000000E+00
  0.00000000E+00  0.00000000E+00  0.00000000E+00
  0.00000000E+00  0.00000000E+00  0.00000000E+00
  0.00000000E+00  0.00000000E+00  0.00000000E+00
  0.00000000E+00  0.00000000E+00  0.00000000E+00
  0.00000000E+00  0.00000000E+00  0.00000000E+00
  0.00000000E+00  0.00000000E+00  0.00000000E+00
  0.00000000E+00  0.00000000E+00  0.00000000E+00
  0.00000000E+00  0.00000000E+00  0.00000000E+00
  0.00000000E+00  0.00000000E+00  0.00000000E+00
  0.00000000E+00  0.00000000E+00  0.00000000E+00
  0.00000000E+00  0.00000000E+00  0.00000000E+00
  0.00000000E+00  0.00000000E+00  0.00000000E+00
  0.00000000E+00  0.00000000E+00  0.00000000E+00
  0.00000000E+00  0.00000000E+00  0.00000000E+00
  0.00000000E+00  0.00000000E+00  0.00000000E+00
  0.00000000E+00  0.00000000E+00  0.00000000E+00
  0.00000000E+00  0.00000000E+00  0.00000000E+00
  0.00000000E+00  0.00000000E+00  0.00000000E+00
  0.00000000E+00  0.00000000E+00  0.00000000E+00
  0.00000000E+00  0.00000000E+00  0.00000000E+00
  0.00000000E+00  0.00000000E+00  0.00000000E+00
  0.00000000E+00  0.00000000E+00  0.00000000E+00
  0.00000000E+00  0.00000000E+00  0.00000000E+00
  0.00000000E+00  0.00000000E+00  0.00000000E+00
  0.00000000E+00  0.00000000E+00  0.00000000E+00
  0.00000000E+00  0.00000000E+00  0.00000000E+00
  0.00000000E+00  0.00000000E+00  0.00000000E+00
  0.00000000E+00  0.00000000E+00  0.00000000E+00
