Primitive Cell                          
   1.00000000000000     
    31.7864359081895316   -0.0745833287290658    0.0000000000000000
   -15.6091729694996939   27.5786934272940734    0.0000000000000000
     0.0000000000000000    0.0000000000000000   20.0000000000000000
   N    H    C 
    24    60    60
Direct
  0.0197020798856116  0.9699025184774825  0.4978702535994088
  0.0193075784663890  0.0457089568107989  0.4999246696119286
  0.0906016095120705  0.0438413241817344  0.5028547811838067
  0.9441042245014444  0.9701340099823810  0.4954395887470611
  0.9452415578233868  0.0431206235575843  0.4977315217260596
  0.9470697630825526  0.8986122691351568  0.4936420173036282
  0.4220962059443849  0.2351113308323107  0.4591716738981972
  0.4851755914853015  0.2151580556171879  0.4746898615932906
  0.4080539567603481  0.1670348600164786  0.5276986198162490
  0.4961738245480518  0.2769347537360360  0.4039612514318662
  0.4698702666887300  0.1496513244891347  0.5425357311530803
  0.3504529156147029  0.1913156241463980  0.5160086388066603
  0.8002398473026062  0.5633900799926863  0.4595796324974302
  0.7177045169260197  0.5007948173129861  0.4758110946111245
  0.7465187277872545  0.5791128643446157  0.5262177076954373
  0.7682223364614060  0.4881941909356655  0.4067860088588091
  0.6679153917342475  0.5177919011358227  0.5420493592057980
  0.8278160220340354  0.6364101569858036  0.5135306575680332
  0.7535384498922681  0.1858014083848474  0.4634359499812817
  0.7742549303763440  0.2689737911040666  0.4798677952863173
  0.8216194167913358  0.2382439690347979  0.5322637554098932
  0.7126927723945329  0.2197943637070381  0.4085529998679647
  0.8400598402397605  0.3177380429894043  0.5473839331098276
  0.7966404407150449  0.1563163115999089  0.5196174436081336
  0.1058937477222273  0.0803478175693542  0.4979823921138689
  0.9683911506224661  0.8834056946543285  0.4878221558615650
  0.9091012103042644  0.0221395164106042  0.4904172701706528
  0.5303450576838529  0.2819703955955646  0.4039417693286822
  0.4445071493863892  0.1240340076593469  0.5728470410798607
  0.3434361392392447  0.2167208888366758  0.4964177250339858
  0.7393482883677294  0.4539827303546957  0.4074766518097235
  0.6676705691450877  0.5437424463430034  0.5714611855737814
  0.8600288321950060  0.6428785794976406  0.4944098847583831
  0.7079389890252585  0.2492458642000770  0.4088801224413672
  0.8653922917662698  0.3171516424380414  0.5775955848136149
  0.7713728554119825  0.1244476702308788  0.4992401174083980
  0.1545390460504024  0.0676889606310027  0.6146751418145442
  0.2390920984568723  0.1275915812402104  0.6452930359190177
  0.3199584421529096  0.1827912640003646  0.6118263128088657
  0.3380716828596135  0.1403717571900742  0.5876477342418340
  0.9077936714131809  0.8357159086493482  0.6036762240019797
  0.8796933246468299  0.7505659696938309  0.6375812952199098
  0.8481945953710408  0.6678827735564994  0.6091895578282092
  0.7891994378494118  0.6517963329218261  0.5815674786179343
  0.9192482411163709  0.0796755235417876  0.6119486438266222
  0.8591561347601697  0.1042669911205962  0.6446278273814983
  0.8052914924184194  0.1326743865747702  0.6142525294887662
  0.8474983504988032  0.1932282328920607  0.5916751900535218
  0.5500366981704019  0.3917935839563356  0.5967157185491061
  0.4883505205726948  0.3282197449691324  0.5235742540310113
  0.6204438865386592  0.4681019960410495  0.6108817737834471
  0.6591584595218194  0.4506823416663792  0.5708241849507658
  0.8292395890035422  0.4355551942604734  0.6003421655400274
  0.8257172408781770  0.4963292136589459  0.5261655177007754
  0.8389788598776988  0.3665986172228841  0.6152844355001008
  0.7825550919950572  0.3275431434449843  0.5772531139587258
  0.5954663333782264  0.1570826548425615  0.5979178813337498
  0.6600791762014282  0.1596848758262865  0.5258155365560881
  0.5201854409315203  0.1529472283682409  0.6114143253708804
  0.5362591242795389  0.2084278855512949  0.5705275898519488
  0.2019605298019940  0.0556535692406896  0.4176476425511169
  0.2868149913745768  0.1153446593036875  0.4485727238307007
  0.1193193119937348  0.0084710915656601  0.4437882354894569
  0.1059588479949412  0.9892780586194121  0.5277554928833581
  0.8447721549151126  0.7863273308767447  0.4090599408952116
  0.8162361374201552  0.7009588806100382  0.4432194567242931
  0.8851903268827073  0.8699018086173567  0.4309044319311894
  0.8774223494157880  0.8846974587332994  0.5133438923036238
  0.9337619328267621  0.1453999387186684  0.4188517013930380
  0.8737795711443610  0.1703613587589246  0.4517927124064016
  0.9806844834455504  0.1086767968495366  0.4423674454377959
  0.9988053062114730  0.1117616830683446  0.5264958569607217
  0.6327610925739222  0.4693545736129252  0.4238984932226018
  0.5705519100374943  0.4058996613103290  0.3502910246488682
  0.4534695584229240  0.3091167159849633  0.3975891711668922
  0.4992952430258768  0.3286361493931480  0.3353345631865281
  0.8283952351875996  0.3532712903287774  0.4287546651505636
  0.8255063496447264  0.4145851522919131  0.3541386909696200
  0.8424400909817322  0.5310216514385715  0.3989605771972720
  0.8160644085069109  0.4841768852924702  0.3379680783800723
  0.5201006152295520  0.1652101082834960  0.4240543365471581
  0.5846264113587765  0.1671772895818577  0.3514668468137643
  0.6806438920856195  0.1452798726479045  0.3994539398202619
  0.6621349866320188  0.1732328645574341  0.3378719795956897
  0.0414372643487226  0.0185268340270710  0.5001435131826284
  0.9707427688538672  0.9479754088404349  0.4957310466068208
  0.9708670132453889  0.0192138872996566  0.4977751228484735
  0.3949533602225017  0.1976108035003179  0.5005481293450913
  0.4664164440844303  0.2414046513709778  0.4474186228186952
  0.4540239369518488  0.1784469693106274  0.5134734889513908
  0.7899087798190578  0.5915525486078295  0.4994276926220351
  0.7624533472436283  0.5188912220776345  0.4488132194269099
  0.7122128381642980  0.5328379100986282  0.5132272576407004
  0.7908263680585392  0.1950928168643955  0.5047469098076860
  0.7477756030633813  0.2243921483773548  0.4521078522549971
  0.8107368222006386  0.2734665059788028  0.5183938675445461
  0.2310732318654942  0.1115752408795032  0.5952879483485347
  0.1835840425372908  0.0778711251079116  0.5782376538880456
  0.2687899261614319  0.1252955144378873  0.5490452681404676
  0.3202928606556341  0.1604681290526884  0.5696351928179055
  0.8716598780544516  0.7582875759599190  0.5873828411551898
  0.8874005374423959  0.8061453121949143  0.5684925264863381
  0.8456410367507843  0.7198374032859718  0.5428262648118576
  0.8271372572378155  0.6680428648201655  0.5653403348172148
  0.8757480669144684  0.1136515729954581  0.5950451511510693
  0.9095627995843643  0.0998877554455220  0.5768394816372791
  0.8626690163605701  0.1394016669079363  0.5505448384128826
  0.8274991834590395  0.1558180971352741  0.5725367883219974
  0.5961423359801898  0.4345284852072311  0.5151873305908765
  0.5546353520952323  0.3950540289749966  0.5424378007216788
  0.5198708277536923  0.3593015441135066  0.5014894513308121
  0.6363624849971714  0.4674906880726724  0.5622919869827356
  0.8281413389587584  0.3897113403948183  0.5194829462226238
  0.8285017111114996  0.4308752600576753  0.5461058087590587
  0.8265838046291023  0.4651108841016764  0.5045912269746324
  0.8217501031173740  0.3499652627062773  0.5673690437214347
  0.5537465781073436  0.1618682835054059  0.5158243824899813
  0.5929091075158581  0.1592067933340573  0.5436273157216363
  0.6292462171366395  0.1605996019498903  0.5032699685409980
  0.5202820486180997  0.1689512231608035  0.5625609653093946
  0.1724732641902378  0.0572410374915080  0.5141203638365894
  0.2101268299751098  0.0711784861524052  0.4679097144406796
  0.2577967892020254  0.1046795314800946  0.4851289086527260
  0.1208661870307068  0.0216022213563107  0.4953874167714858
  0.8778592653175323  0.8169059393327132  0.5041290036386457
  0.8521820532697575  0.7785017245232666  0.4595317311071270
  0.8360860801872718  0.7305146526043202  0.4785965425390302
  0.8951929282320634  0.8687595948723228  0.4835219393149330
  0.9309950836777290  0.1112198130430002  0.5132526808036602
  0.9176263767043551  0.1366120190383313  0.4687176642337079
  0.8839836234581924  0.1507118691568294  0.4870992004384576
  0.9670173608518198  0.0955821767358245  0.4933033847474775
  0.5658026306473189  0.4028259577974467  0.4045413317075344
  0.6007412684331541  0.4388007041725572  0.4456505123688288
  0.5256709791413741  0.3621356257672659  0.4317595007449455
  0.4914697535062871  0.3195656773181952  0.3886532721251896
  0.8266065954247210  0.4194409030400621  0.4083489790986405
  0.8285835280746809  0.3850142234148848  0.4500428852839420
  0.8243647689558173  0.4591340962114501  0.4349018039260244
  0.8152213293944399  0.4927625432425558  0.3911013185691274
  0.5869470116315725  0.1646512121205888  0.4057216794640226
  0.5503829702716416  0.1632010765960388  0.4462242826018965
  0.6273176846763349  0.1646071715403608  0.4335936899718149
  0.6704061205501333  0.1732765690280189  0.3913167330081748
 
  0.00000000E+00  0.00000000E+00  0.00000000E+00
  0.00000000E+00  0.00000000E+00  0.00000000E+00
  0.00000000E+00  0.00000000E+00  0.00000000E+00
  0.00000000E+00  0.00000000E+00  0.00000000E+00
  0.00000000E+00  0.00000000E+00  0.00000000E+00
  0.00000000E+00  0.00000000E+00  0.00000000E+00
  0.00000000E+00  0.00000000E+00  0.00000000E+00
  0.00000000E+00  0.00000000E+00  0.00000000E+00
  0.00000000E+00  0.00000000E+00  0.00000000E+00
  0.00000000E+00  0.00000000E+00  0.00000000E+00
  0.00000000E+00  0.00000000E+00  0.00000000E+00
  0.00000000E+00  0.00000000E+00  0.00000000E+00
  0.00000000E+00  0.00000000E+00  0.00000000E+00
  0.00000000E+00  0.00000000E+00  0.00000000E+00
  0.00000000E+00  0.00000000E+00  0.00000000E+00
  0.00000000E+00  0.00000000E+00  0.00000000E+00
  0.00000000E+00  0.00000000E+00  0.00000000E+00
  0.00000000E+00  0.00000000E+00  0.00000000E+00
  0.00000000E+00  0.00000000E+00  0.00000000E+00
  0.00000000E+00  0.00000000E+00  0.00000000E+00
  0.00000000E+00  0.00000000E+00  0.00000000E+00
  0.00000000E+00  0.00000000E+00  0.00000000E+00
  0.00000000E+00  0.00000000E+00  0.00000000E+00
  0.00000000E+00  0.00000000E+00  0.00000000E+00
  0.00000000E+00  0.00000000E+00  0.00000000E+00
  0.00000000E+00  0.00000000E+00  0.00000000E+00
  0.00000000E+00  0.00000000E+00  0.00000000E+00
  0.00000000E+00  0.00000000E+00  0.00000000E+00
  0.00000000E+00  0.00000000E+00  0.00000000E+00
  0.00000000E+00  0.00000000E+00  0.00000000E+00
  0.00000000E+00  0.00000000E+00  0.00000000E+00
  0.00000000E+00  0.00000000E+00  0.00000000E+00
  0.00000000E+00  0.00000000E+00  0.00000000E+00
  0.00000000E+00  0.00000000E+00  0.00000000E+00
  0.00000000E+00  0.00000000E+00  0.00000000E+00
  0.00000000E+00  0.00000000E+00  0.00000000E+00
  0.00000000E+00  0.00000000E+00  0.00000000E+00
  0.00000000E+00  0.00000000E+00  0.00000000E+00
  0.00000000E+00  0.00000000E+00  0.00000000E+00
  0.00000000E+00  0.00000000E+00  0.00000000E+00
  0.00000000E+00  0.00000000E+00  0.00000000E+00
  0.00000000E+00  0.00000000E+00  0.00000000E+00
  0.00000000E+00  0.00000000E+00  0.00000000E+00
  0.00000000E+00  0.00000000E+00  0.00000000E+00
  0.00000000E+00  0.00000000E+00  0.00000000E+00
  0.00000000E+00  0.00000000E+00  0.00000000E+00
  0.00000000E+00  0.00000000E+00  0.00000000E+00
  0.00000000E+00  0.00000000E+00  0.00000000E+00
  0.00000000E+00  0.00000000E+00  0.00000000E+00
  0.00000000E+00  0.00000000E+00  0.00000000E+00
  0.00000000E+00  0.00000000E+00  0.00000000E+00
  0.00000000E+00  0.00000000E+00  0.00000000E+00
  0.00000000E+00  0.00000000E+00  0.00000000E+00
  0.00000000E+00  0.00000000E+00  0.00000000E+00
  0.00000000E+00  0.00000000E+00  0.00000000E+00
  0.00000000E+00  0.00000000E+00  0.00000000E+00
  0.00000000E+00  0.00000000E+00  0.00000000E+00
  0.00000000E+00  0.00000000E+00  0.00000000E+00
  0.00000000E+00  0.00000000E+00  0.00000000E+00
  0.00000000E+00  0.00000000E+00  0.00000000E+00
  0.00000000E+00  0.00000000E+00  0.00000000E+00
  0.00000000E+00  0.00000000E+00  0.00000000E+00
  0.00000000E+00  0.00000000E+00  0.00000000E+00
  0.00000000E+00  0.00000000E+00  0.00000000E+00
  0.00000000E+00  0.00000000E+00  0.00000000E+00
  0.00000000E+00  0.00000000E+00  0.00000000E+00
  0.00000000E+00  0.00000000E+00  0.00000000E+00
  0.00000000E+00  0.00000000E+00  0.00000000E+00
  0.00000000E+00  0.00000000E+00  0.00000000E+00
  0.00000000E+00  0.00000000E+00  0.00000000E+00
  0.00000000E+00  0.00000000E+00  0.00000000E+00
  0.00000000E+00  0.00000000E+00  0.00000000E+00
  0.00000000E+00  0.00000000E+00  0.00000000E+00
  0.00000000E+00  0.00000000E+00  0.00000000E+00
  0.00000000E+00  0.00000000E+00  0.00000000E+00
  0.00000000E+00  0.00000000E+00  0.00000000E+00
  0.00000000E+00  0.00000000E+00  0.00000000E+00
  0.00000000E+00  0.00000000E+00  0.00000000E+00
  0.00000000E+00  0.00000000E+00  0.00000000E+00
  0.00000000E+00  0.00000000E+00  0.00000000E+00
  0.00000000E+00  0.00000000E+00  0.00000000E+00
  0.00000000E+00  0.00000000E+00  0.00000000E+00
  0.00000000E+00  0.00000000E+00  0.00000000E+00
  0.00000000E+00  0.00000000E+00  0.00000000E+00
  0.00000000E+00  0.00000000E+00  0.00000000E+00
  0.00000000E+00  0.00000000E+00  0.00000000E+00
  0.00000000E+00  0.00000000E+00  0.00000000E+00
  0.00000000E+00  0.00000000E+00  0.00000000E+00
  0.00000000E+00  0.00000000E+00  0.00000000E+00
  0.00000000E+00  0.00000000E+00  0.00000000E+00
  0.00000000E+00  0.00000000E+00  0.00000000E+00
  0.00000000E+00  0.00000000E+00  0.00000000E+00
  0.00000000E+00  0.00000000E+00  0.00000000E+00
  0.00000000E+00  0.00000000E+00  0.00000000E+00
  0.00000000E+00  0.00000000E+00  0.00000000E+00
  0.00000000E+00  0.00000000E+00  0.00000000E+00
  0.00000000E+00  0.00000000E+00  0.00000000E+00
  0.00000000E+00  0.00000000E+00  0.00000000E+00
  0.00000000E+00  0.00000000E+00  0.00000000E+00
  0.00000000E+00  0.00000000E+00  0.00000000E+00
  0.00000000E+00  0.00000000E+00  0.00000000E+00
  0.00000000E+00  0.00000000E+00  0.00000000E+00
  0.00000000E+00  0.00000000E+00  0.00000000E+00
  0.00000000E+00  0.00000000E+00  0.00000000E+00
  0.00000000E+00  0.00000000E+00  0.00000000E+00
  0.00000000E+00  0.00000000E+00  0.00000000E+00
  0.00000000E+00  0.00000000E+00  0.00000000E+00
  0.00000000E+00  0.00000000E+00  0.00000000E+00
  0.00000000E+00  0.00000000E+00  0.00000000E+00
  0.00000000E+00  0.00000000E+00  0.00000000E+00
  0.00000000E+00  0.00000000E+00  0.00000000E+00
  0.00000000E+00  0.00000000E+00  0.00000000E+00
  0.00000000E+00  0.00000000E+00  0.00000000E+00
  0.00000000E+00  0.00000000E+00  0.00000000E+00
  0.00000000E+00  0.00000000E+00  0.00000000E+00
  0.00000000E+00  0.00000000E+00  0.00000000E+00
  0.00000000E+00  0.00000000E+00  0.00000000E+00
  0.00000000E+00  0.00000000E+00  0.00000000E+00
  0.00000000E+00  0.00000000E+00  0.00000000E+00
  0.00000000E+00  0.00000000E+00  0.00000000E+00
  0.00000000E+00  0.00000000E+00  0.00000000E+00
  0.00000000E+00  0.00000000E+00  0.00000000E+00
  0.00000000E+00  0.00000000E+00  0.00000000E+00
  0.00000000E+00  0.00000000E+00  0.00000000E+00
  0.00000000E+00  0.00000000E+00  0.00000000E+00
  0.00000000E+00  0.00000000E+00  0.00000000E+00
  0.00000000E+00  0.00000000E+00  0.00000000E+00
  0.00000000E+00  0.00000000E+00  0.00000000E+00
  0.00000000E+00  0.00000000E+00  0.00000000E+00
  0.00000000E+00  0.00000000E+00  0.00000000E+00
  0.00000000E+00  0.00000000E+00  0.00000000E+00
  0.00000000E+00  0.00000000E+00  0.00000000E+00
  0.00000000E+00  0.00000000E+00  0.00000000E+00
  0.00000000E+00  0.00000000E+00  0.00000000E+00
  0.00000000E+00  0.00000000E+00  0.00000000E+00
  0.00000000E+00  0.00000000E+00  0.00000000E+00
  0.00000000E+00  0.00000000E+00  0.00000000E+00
  0.00000000E+00  0.00000000E+00  0.00000000E+00
  0.00000000E+00  0.00000000E+00  0.00000000E+00
  0.00000000E+00  0.00000000E+00  0.00000000E+00
  0.00000000E+00  0.00000000E+00  0.00000000E+00
  0.00000000E+00  0.00000000E+00  0.00000000E+00
  0.00000000E+00  0.00000000E+00  0.00000000E+00
  0.00000000E+00  0.00000000E+00  0.00000000E+00
