Primitive Cell                          
   1.00000000000000     
    21.4869577449434246    0.3369575937659362    0.0000000000000000
   -10.4387920364655447   18.8226095278485239    0.0000000000000000
     0.0000000000000000    0.0000000000000000   20.0000000000000000
   C    N    O    H 
    27    21     9    15
Direct
  0.3766658505496707  0.6528225562916177  0.5143399573827665
  0.3326113606664691  0.7298668312739238  0.5138420500746435
  0.4393882285802206  0.6378731256551049  0.5165446734814267
  0.3445404851052558  0.8057349620765848  0.5153101253658789
  0.1844631443514544  0.5506386782143480  0.5146076013827212
  0.6070909862682257  0.3353241678159620  0.5490861515009016
  0.6501998227371502  0.2576761108802685  0.5531756531430432
  0.5437365887536600  0.3490903108973455  0.5426785764829773
  0.6365801876828030  0.1811331636319125  0.5537696457686820
  0.7988946972207742  0.4359543721197241  0.5650075672331667
  0.5291539514777170  0.0646873599853492  0.5325759694665351
  0.4566141674719120  0.0324562367014209  0.5140145754496359
  0.4218371549602509  0.0765276892230133  0.4920758185476046
  0.5260567478531684  0.4549983633496666  0.5298802141352041
  0.5613780058044426  0.5296338366682036  0.5229433942703281
  0.6405083622900349  0.5727289972651661  0.5194701332025957
  0.9205983978205978  0.4569210080240111  0.5398038313041269
  0.9644517045048389  0.4244609587166153  0.5314829578402254
  0.9365544829790267  0.3458939143933577  0.5295889507361267
  0.2586999692334899  0.6126728192967761  0.5133496231361505
  0.7242928086668741  0.3743149662181153  0.5594172774348252
  0.5242002263663323  0.9569258592941665  0.5370243343112620
  0.4519198338493737  0.9247560052606119  0.5204156528194446
  0.4200423527298511  0.4557286583316298  0.5261723495779975
  0.4550220241789660  0.5299704944393753  0.5207001669988287
  0.0178914658160210  0.5651693128363320  0.5297704750592303
  0.0617489757542842  0.5329706684674846  0.5239988336468215
  0.3119746863640955  0.5971217548247623  0.5134080107112311
  0.3899294567426637  0.7199553183161314  0.5144727184376308
  0.2659346524123123  0.6781221957561883  0.5135077200731288
  0.6713759365382614  0.3905016111606372  0.5560708074966385
  0.5935071658675000  0.2680421392685943  0.5473045190869641
  0.7167730283061573  0.3087700446875559  0.5583830763119053
  0.4188381941609833  0.9627874779449144  0.5079891051965149
  0.4171227859265727  0.1193261683956379  0.5397947315621536
  0.5663166186777602  0.1373829894096801  0.5385703936437096
  0.5251365833682229  0.5655293298717226  0.5187913610736103
  0.6640499228749022  0.6428733061095926  0.5155487109959722
  0.5657330209590583  0.4201405802554490  0.5360987047888557
  0.0339580296906519  0.4631953765714769  0.5240316137422738
  0.9872287844766632  0.3258837776951111  0.5242046043315511
  0.8488565667462993  0.4152195466225521  0.5481206222386632
  0.5623200472612169  0.0261895343159395  0.5430618808614653
  0.4158608635913339  0.8515283348368428  0.5160813637964736
  0.4551220595818108  0.4191585403421456  0.5308763338879103
  0.4159133825586565  0.5661626863706744  0.5171653231468412
  0.9486775231746236  0.5275728580395338  0.5375617372037098
  0.1346551930179558  0.5736972005716083  0.5181136304741543
  0.2953815661445489  0.8193716843658123  0.5168887568789629
  0.1746518144347178  0.4897211420054646  0.5134454051003914
  0.5003827336749893  0.6853015127807822  0.5181268802927761
  0.6825988872800366  0.1650303702589611  0.5665354654139847
  0.8091703418552214  0.4943575573719912  0.5825221348788503
  0.4831487971971384  0.3006300027999771  0.5436125375630780
  0.4044279441218777  0.0755761590426189  0.4333702622228444
  0.6796831694233418  0.5447336821866884  0.5201500235079237
  0.8722503036780722  0.3042208070428885  0.5327182880891215
  0.4283825426028045  0.1161002434232685  0.5884278617134200
  0.4035299345301695  0.1569720772624663  0.5266877190166710
  0.5385591325448473  0.1647762848772487  0.5316529445522775
  0.6287390202922438  0.6618318589392800  0.5148596426220919
  0.7166713169826053  0.6753688526074626  0.5132209586567029
  0.6199993669547510  0.4541698859587910  0.5349180371027913
  0.0385739333440540  0.3634296480951633  0.5205566035143150
  0.9728770356863592  0.2739159140060110  0.5216580870868910
  0.8328533454313103  0.3615596600996440  0.5435307689374511
  0.5513644774937347  0.9254831063002058  0.5455798929606033
  0.4458586784230718  0.8260722072524587  0.5176406170983086
  0.3623194625119126  0.4258391421557590  0.5267720389774837
  0.3620040058268472  0.5372423326481695  0.5163815142185655
  0.0397511955537055  0.6225309405945652  0.5274748172943262
  0.1556175080410753  0.6273987292295260  0.5180567557556941
 
  0.00000000E+00  0.00000000E+00  0.00000000E+00
  0.00000000E+00  0.00000000E+00  0.00000000E+00
  0.00000000E+00  0.00000000E+00  0.00000000E+00
  0.00000000E+00  0.00000000E+00  0.00000000E+00
  0.00000000E+00  0.00000000E+00  0.00000000E+00
  0.00000000E+00  0.00000000E+00  0.00000000E+00
  0.00000000E+00  0.00000000E+00  0.00000000E+00
  0.00000000E+00  0.00000000E+00  0.00000000E+00
  0.00000000E+00  0.00000000E+00  0.00000000E+00
  0.00000000E+00  0.00000000E+00  0.00000000E+00
  0.00000000E+00  0.00000000E+00  0.00000000E+00
  0.00000000E+00  0.00000000E+00  0.00000000E+00
  0.00000000E+00  0.00000000E+00  0.00000000E+00
  0.00000000E+00  0.00000000E+00  0.00000000E+00
  0.00000000E+00  0.00000000E+00  0.00000000E+00
  0.00000000E+00  0.00000000E+00  0.00000000E+00
  0.00000000E+00  0.00000000E+00  0.00000000E+00
  0.00000000E+00  0.00000000E+00  0.00000000E+00
  0.00000000E+00  0.00000000E+00  0.00000000E+00
  0.00000000E+00  0.00000000E+00  0.00000000E+00
  0.00000000E+00  0.00000000E+00  0.00000000E+00
  0.00000000E+00  0.00000000E+00  0.00000000E+00
  0.00000000E+00  0.00000000E+00  0.00000000E+00
  0.00000000E+00  0.00000000E+00  0.00000000E+00
  0.00000000E+00  0.00000000E+00  0.00000000E+00
  0.00000000E+00  0.00000000E+00  0.00000000E+00
  0.00000000E+00  0.00000000E+00  0.00000000E+00
  0.00000000E+00  0.00000000E+00  0.00000000E+00
  0.00000000E+00  0.00000000E+00  0.00000000E+00
  0.00000000E+00  0.00000000E+00  0.00000000E+00
  0.00000000E+00  0.00000000E+00  0.00000000E+00
  0.00000000E+00  0.00000000E+00  0.00000000E+00
  0.00000000E+00  0.00000000E+00  0.00000000E+00
  0.00000000E+00  0.00000000E+00  0.00000000E+00
  0.00000000E+00  0.00000000E+00  0.00000000E+00
  0.00000000E+00  0.00000000E+00  0.00000000E+00
  0.00000000E+00  0.00000000E+00  0.00000000E+00
  0.00000000E+00  0.00000000E+00  0.00000000E+00
  0.00000000E+00  0.00000000E+00  0.00000000E+00
  0.00000000E+00  0.00000000E+00  0.00000000E+00
  0.00000000E+00  0.00000000E+00  0.00000000E+00
  0.00000000E+00  0.00000000E+00  0.00000000E+00
  0.00000000E+00  0.00000000E+00  0.00000000E+00
  0.00000000E+00  0.00000000E+00  0.00000000E+00
  0.00000000E+00  0.00000000E+00  0.00000000E+00
  0.00000000E+00  0.00000000E+00  0.00000000E+00
  0.00000000E+00  0.00000000E+00  0.00000000E+00
  0.00000000E+00  0.00000000E+00  0.00000000E+00
  0.00000000E+00  0.00000000E+00  0.00000000E+00
  0.00000000E+00  0.00000000E+00  0.00000000E+00
  0.00000000E+00  0.00000000E+00  0.00000000E+00
  0.00000000E+00  0.00000000E+00  0.00000000E+00
  0.00000000E+00  0.00000000E+00  0.00000000E+00
  0.00000000E+00  0.00000000E+00  0.00000000E+00
  0.00000000E+00  0.00000000E+00  0.00000000E+00
  0.00000000E+00  0.00000000E+00  0.00000000E+00
  0.00000000E+00  0.00000000E+00  0.00000000E+00
  0.00000000E+00  0.00000000E+00  0.00000000E+00
  0.00000000E+00  0.00000000E+00  0.00000000E+00
  0.00000000E+00  0.00000000E+00  0.00000000E+00
  0.00000000E+00  0.00000000E+00  0.00000000E+00
  0.00000000E+00  0.00000000E+00  0.00000000E+00
  0.00000000E+00  0.00000000E+00  0.00000000E+00
  0.00000000E+00  0.00000000E+00  0.00000000E+00
  0.00000000E+00  0.00000000E+00  0.00000000E+00
  0.00000000E+00  0.00000000E+00  0.00000000E+00
  0.00000000E+00  0.00000000E+00  0.00000000E+00
  0.00000000E+00  0.00000000E+00  0.00000000E+00
  0.00000000E+00  0.00000000E+00  0.00000000E+00
  0.00000000E+00  0.00000000E+00  0.00000000E+00
  0.00000000E+00  0.00000000E+00  0.00000000E+00
  0.00000000E+00  0.00000000E+00  0.00000000E+00
