Primitive Cell                          
   1.00000000000000     
    29.3992824340430232    0.0130753036447913    0.0000000000000000
   -14.6881465125951198   25.4028296731732155    0.0000000000000000
     0.0000000000000000    0.0000000000000000   20.0000000000000000
   N    C    H 
    12    54    30
Direct
  0.4295205990755662  0.8089942827057968  0.5090165369373949
  0.1905401946659424  0.6203030260948310  0.5116474115810661
  0.3792174916701683  0.5695957661943964  0.5105924847015899
  0.4933546813383032  0.0511714277724309  0.5294016787348923
  0.4556962199217267  0.9439185415485341  0.5431379639442326
  0.5720286490066258  0.1891072114128818  0.4787572754106080
  0.9485224294603540  0.4430777401779338  0.5335059766215409
  0.0557398451268938  0.5119487944911896  0.5463111774046041
  0.8110343604975299  0.3832263603451977  0.4817532886482994
  0.5578305511656581  0.5067592839449588  0.5293515714262469
  0.4883335089180321  0.5441804682180802  0.5434066542826841
  0.6172771726657871  0.4285369570497437  0.4782211343309370
  0.3564930711483072  0.7214678057302706  0.5246261912736898
  0.3018400336587135  0.6898468143135688  0.5255794295247398
  0.2779856379141208  0.6345566056752148  0.5257288289147013
  0.3095507887048825  0.6114106986028318  0.5258502236334692
  0.3647442809410961  0.6428205813951422  0.5249865181948152
  0.3878288834114514  0.6975841104257654  0.5248148176546152
  0.2208099033305544  0.6009770623970638  0.5211554035953228
  0.3983550792936867  0.6192755602153994  0.5197131104477393
  0.3800347079045352  0.7786726897790430  0.5191898865534270
  0.6442703581762288  0.2785445646071665  0.4732275325045023
  0.6988648315360493  0.3109740073623612  0.4739456704522738
  0.7218305241338214  0.3661606160432243  0.4742094704881268
  0.6894822349108409  0.3884413560103681  0.4733753649020755
  0.6344037273506729  0.3562494636016069  0.4726588155593205
  0.6121645263162421  0.3015491051216941  0.4723690294500500
  0.7788784206700896  0.4007508367644590  0.4767313721897750
  0.5998221241636230  0.3787639550896955  0.4738812377420061
  0.6217460526252907  0.2213747080700159  0.4749856013247751
  0.5509985567707076  0.0558419063070161  0.4387513571370931
  0.5717500049752076  0.1106605993821148  0.4348180822636891
  0.4913549474228418  0.9710439610748196  0.4946574044666292
  0.4506253822238477  0.8632203231950299  0.5038703040601078
  0.4890559920136894  0.8912275959819524  0.4561684731591740
  0.5099677078789568  0.9458688779735809  0.4499342414819125
  0.5487307073099572  0.9760410260743484  0.4004291015495127
  0.5684514082114518  0.0289879668963451  0.3950096333472430
  0.9441926964533138  0.4949224070417699  0.4410604075445974
  0.8894765046433619  0.4608844425922101  0.4371364087192973
  0.0287530235789930  0.5203263287405520  0.4974976330186252
  0.1363888077698405  0.5872171885789967  0.5065659159343667
  0.1085567243853873  0.5973638758642963  0.4583087646131645
  0.0540181573137701  0.5636804424615320  0.4520945356963466
  0.0240365673762497  0.5718733823670945  0.4019093661733919
  0.9711783405834709  0.5387027901673278  0.3965115462063409
  0.5052688620699470  0.4495314151160485  0.4380256867903043
  0.5393844264272545  0.4289400497698637  0.4338774099670815
  0.4798277539138454  0.5086636219085392  0.4946925786854521
  0.4124414236757801  0.5487504377834398  0.5048884240121012
  0.4021490444186142  0.5105886821896277  0.4567518664708814
  0.4360664816384059  0.4900336642308218  0.4499909862025504
  0.4277277745995249  0.4516441160857525  0.3999612794030796
  0.4611051136927955  0.4322217502506192  0.3941376281344660
  0.5536244650139608  0.1350847931282573  0.4782641554210514
  0.5128286540022700  0.1024351220573649  0.5235930851089279
  0.5119435354572488  0.0273010326135363  0.4884411404473923
  0.4363802264593062  0.8925778815613015  0.5473371967814771
  0.8649365932210529  0.4188667302666218  0.4814298246056339
  0.8973509177687617  0.4113270109997416  0.5277956583084347
  0.9725410778746166  0.4848826123161913  0.4915300315866631
  0.1070144555101962  0.5438761497519167  0.5504004362957744
  0.5817111169369866  0.4468947970408124  0.4776090017396086
  0.5896550618490295  0.4874320956291740  0.5233391909816092
  0.5155513789381132  0.4882775026574322  0.4881800995574608
  0.4561508075273224  0.5631867436001130  0.5480836361203600
  0.2919647301660788  0.5686647991511151  0.5248506138519886
  0.4304774468197152  0.7227305383243845  0.5231195388189818
  0.2767488619076701  0.7074410347430060  0.5244270872223424
  0.3524276903987271  0.7939135747218629  0.5211307460853405
  0.4411788863899986  0.6470796727588422  0.5205995141446778
  0.2055376165617986  0.5580541942040824  0.5229176225250853
  0.7063407860914239  0.4311006763004031  0.4739861338920335
  0.5695695828241440  0.2757886914774517  0.4722118700534850
  0.7245825733571323  0.2940879084908943  0.4750513058028929
  0.6503459399423548  0.2073168105075993  0.4745694633913189
  0.5571899787060204  0.3500922701090801  0.4726554887908492
  0.7929685305014189  0.4434815825278093  0.4756138791968070
  0.6012064001967303  0.1335091895360065  0.3969010587518937
  0.5621564152291327  0.9556913261668853  0.3670944424952367
  0.5980915240441362  0.0518877339715829  0.3573466098366467
  0.5020975837274619  0.8704158615710895  0.4230811318307346
  0.8667916408194003  0.4670298538732141  0.3985277279240265
  0.0444702916966762  0.6052713873964279  0.3679933714218464
  0.9484455164142744  0.5450795221118483  0.3582270616633352
  0.1294227810721296  0.6309098249953919  0.4247367133062596
  0.5330147212942791  0.3997359874694268  0.3956370377816683
  0.3940401354933840  0.4382607789083721  0.3665636719870875
  0.4545700148067198  0.4028923146520995  0.3560309939592017
  0.3683225372860335  0.4975504502113779  0.4236890183722508
  0.4970699914627730  0.1208413587769996  0.5568168003516689
  0.4088732650482001  0.8721224399787317  0.5883388125752447
  0.8788268912578090  0.3777010025872301  0.5619163690765205
  0.1274091318574762  0.5369182061974627  0.5915622563793193
  0.6237059109151701  0.5030919988246225  0.5567161733937738
  0.4632050341028346  0.5906372846376797  0.5892111461661784
 
  0.00000000E+00  0.00000000E+00  0.00000000E+00
  0.00000000E+00  0.00000000E+00  0.00000000E+00
  0.00000000E+00  0.00000000E+00  0.00000000E+00
  0.00000000E+00  0.00000000E+00  0.00000000E+00
  0.00000000E+00  0.00000000E+00  0.00000000E+00
  0.00000000E+00  0.00000000E+00  0.00000000E+00
  0.00000000E+00  0.00000000E+00  0.00000000E+00
  0.00000000E+00  0.00000000E+00  0.00000000E+00
  0.00000000E+00  0.00000000E+00  0.00000000E+00
  0.00000000E+00  0.00000000E+00  0.00000000E+00
  0.00000000E+00  0.00000000E+00  0.00000000E+00
  0.00000000E+00  0.00000000E+00  0.00000000E+00
  0.00000000E+00  0.00000000E+00  0.00000000E+00
  0.00000000E+00  0.00000000E+00  0.00000000E+00
  0.00000000E+00  0.00000000E+00  0.00000000E+00
  0.00000000E+00  0.00000000E+00  0.00000000E+00
  0.00000000E+00  0.00000000E+00  0.00000000E+00
  0.00000000E+00  0.00000000E+00  0.00000000E+00
  0.00000000E+00  0.00000000E+00  0.00000000E+00
  0.00000000E+00  0.00000000E+00  0.00000000E+00
  0.00000000E+00  0.00000000E+00  0.00000000E+00
  0.00000000E+00  0.00000000E+00  0.00000000E+00
  0.00000000E+00  0.00000000E+00  0.00000000E+00
  0.00000000E+00  0.00000000E+00  0.00000000E+00
  0.00000000E+00  0.00000000E+00  0.00000000E+00
  0.00000000E+00  0.00000000E+00  0.00000000E+00
  0.00000000E+00  0.00000000E+00  0.00000000E+00
  0.00000000E+00  0.00000000E+00  0.00000000E+00
  0.00000000E+00  0.00000000E+00  0.00000000E+00
  0.00000000E+00  0.00000000E+00  0.00000000E+00
  0.00000000E+00  0.00000000E+00  0.00000000E+00
  0.00000000E+00  0.00000000E+00  0.00000000E+00
  0.00000000E+00  0.00000000E+00  0.00000000E+00
  0.00000000E+00  0.00000000E+00  0.00000000E+00
  0.00000000E+00  0.00000000E+00  0.00000000E+00
  0.00000000E+00  0.00000000E+00  0.00000000E+00
  0.00000000E+00  0.00000000E+00  0.00000000E+00
  0.00000000E+00  0.00000000E+00  0.00000000E+00
  0.00000000E+00  0.00000000E+00  0.00000000E+00
  0.00000000E+00  0.00000000E+00  0.00000000E+00
  0.00000000E+00  0.00000000E+00  0.00000000E+00
  0.00000000E+00  0.00000000E+00  0.00000000E+00
  0.00000000E+00  0.00000000E+00  0.00000000E+00
  0.00000000E+00  0.00000000E+00  0.00000000E+00
  0.00000000E+00  0.00000000E+00  0.00000000E+00
  0.00000000E+00  0.00000000E+00  0.00000000E+00
  0.00000000E+00  0.00000000E+00  0.00000000E+00
  0.00000000E+00  0.00000000E+00  0.00000000E+00
  0.00000000E+00  0.00000000E+00  0.00000000E+00
  0.00000000E+00  0.00000000E+00  0.00000000E+00
  0.00000000E+00  0.00000000E+00  0.00000000E+00
  0.00000000E+00  0.00000000E+00  0.00000000E+00
  0.00000000E+00  0.00000000E+00  0.00000000E+00
  0.00000000E+00  0.00000000E+00  0.00000000E+00
  0.00000000E+00  0.00000000E+00  0.00000000E+00
  0.00000000E+00  0.00000000E+00  0.00000000E+00
  0.00000000E+00  0.00000000E+00  0.00000000E+00
  0.00000000E+00  0.00000000E+00  0.00000000E+00
  0.00000000E+00  0.00000000E+00  0.00000000E+00
  0.00000000E+00  0.00000000E+00  0.00000000E+00
  0.00000000E+00  0.00000000E+00  0.00000000E+00
  0.00000000E+00  0.00000000E+00  0.00000000E+00
  0.00000000E+00  0.00000000E+00  0.00000000E+00
  0.00000000E+00  0.00000000E+00  0.00000000E+00
  0.00000000E+00  0.00000000E+00  0.00000000E+00
  0.00000000E+00  0.00000000E+00  0.00000000E+00
  0.00000000E+00  0.00000000E+00  0.00000000E+00
  0.00000000E+00  0.00000000E+00  0.00000000E+00
  0.00000000E+00  0.00000000E+00  0.00000000E+00
  0.00000000E+00  0.00000000E+00  0.00000000E+00
  0.00000000E+00  0.00000000E+00  0.00000000E+00
  0.00000000E+00  0.00000000E+00  0.00000000E+00
  0.00000000E+00  0.00000000E+00  0.00000000E+00
  0.00000000E+00  0.00000000E+00  0.00000000E+00
  0.00000000E+00  0.00000000E+00  0.00000000E+00
  0.00000000E+00  0.00000000E+00  0.00000000E+00
  0.00000000E+00  0.00000000E+00  0.00000000E+00
  0.00000000E+00  0.00000000E+00  0.00000000E+00
  0.00000000E+00  0.00000000E+00  0.00000000E+00
  0.00000000E+00  0.00000000E+00  0.00000000E+00
  0.00000000E+00  0.00000000E+00  0.00000000E+00
  0.00000000E+00  0.00000000E+00  0.00000000E+00
  0.00000000E+00  0.00000000E+00  0.00000000E+00
  0.00000000E+00  0.00000000E+00  0.00000000E+00
  0.00000000E+00  0.00000000E+00  0.00000000E+00
  0.00000000E+00  0.00000000E+00  0.00000000E+00
  0.00000000E+00  0.00000000E+00  0.00000000E+00
  0.00000000E+00  0.00000000E+00  0.00000000E+00
  0.00000000E+00  0.00000000E+00  0.00000000E+00
  0.00000000E+00  0.00000000E+00  0.00000000E+00
  0.00000000E+00  0.00000000E+00  0.00000000E+00
  0.00000000E+00  0.00000000E+00  0.00000000E+00
  0.00000000E+00  0.00000000E+00  0.00000000E+00
  0.00000000E+00  0.00000000E+00  0.00000000E+00
  0.00000000E+00  0.00000000E+00  0.00000000E+00
  0.00000000E+00  0.00000000E+00  0.00000000E+00
