K-Path Generated by VASPKIT.
   20
Line-Mode
Reciprocal
   0.0000000000   0.0000000000   0.0000000000     \Gamma          
   0.5000000000  -0.5000000000   0.0000000000     X              
 
   0.5000000000  -0.5000000000   0.0000000000     X              
   0.6621941476  -0.3309157305   0.0000000000     H_1            
 
   0.6621941476  -0.3309157305   0.0000000000     H_1            
   0.5000000000   0.0000000000   0.0000000000     C              
 
   0.5000000000   0.0000000000   0.0000000000     C              
   0.3378058524   0.3309157305   0.0000000000     H              
 
   0.3378058524   0.3309157305   0.0000000000     H              
   0.0000000000   0.5000000000   0.0000000000     Y              
 
   0.0000000000   0.5000000000   0.0000000000     Y              
   0.0000000000   0.0000000000   0.0000000000     \Gamma          
 
