Primitive Cell                          
   1.00000000000000     
    37.9065390643247682   -0.0328722040328490    0.0000000000000000
   -18.9835238362254231   32.7662147398279160    0.0000000000000000
     0.0000000000000000    0.0000000000000000   20.0000000000000000
   N    H    C 
    72    36   108
Direct
  0.1340507159487174  0.6995576758208557  0.5244835082592516
  0.1767858867593262  0.6698111334727059  0.5298556105353569
  0.1088746009672548  0.6305033593407003  0.4901515240617016
  0.3174371136314704  0.4087842924006111  0.5209087894839257
  0.3219271093639051  0.8841478447965940  0.5191717461038863
  0.1328079403423885  0.4096987290964904  0.5166036089262960
  0.1774297319367832  0.4820478125865790  0.5270206450065231
  0.1107410527659809  0.4560036784358843  0.4832983108067950
  0.2070068527003599  0.7757197092975332  0.5255209030358969
  0.2751182637211542  0.4710837685315994  0.5754779640431735
  0.1799504470481423  0.5589543363136968  0.5367870924808784
  0.0425210815006523  0.6639184261061999  0.5363712024050216
  0.2784988370306394  0.7787974449239954  0.5706553605806164
  0.2038413045999263  0.4036236425245860  0.5268021612073994
  0.1220809177092903  0.5678186013568975  0.4618788722157419
  0.0452446335224721  0.3933875207265274  0.4245097677336602
  0.6120610650875307  0.8876825001710671  0.5315148062543287
  0.5393698783662586  0.8452781659580495  0.5357843029837426
  0.5688770632068554  0.9122585615284180  0.4914446168941211
  0.3478361479781000  0.4810759989914288  0.5346374191094014
  0.3867453591060794  0.4534664212691411  0.4892816285167711
  0.9095768081337638  0.2976057678608655  0.5031598178497347
  0.8676267543684375  0.3281881741996813  0.5088584705724557
  0.9349861569572511  0.3663534417219267  0.4667423201072722
  0.4314592456131834  0.1109155186293691  0.5153135479949356
  0.5037921480844361  0.1534734487781577  0.5293410209560605
  0.4758310105743178  0.0837670747496233  0.5008441648142679
  0.7228013131317752  0.5897691135648060  0.5331328422690973
  0.6916709895212705  0.5171571920254223  0.5455455914488425
  0.6505107189020833  0.5465606552714348  0.5244236360980778
  0.4324707890074677  0.2978236774498200  0.5155014837776477
  0.5044962808162055  0.3298928903219291  0.5335789594385361
  0.4745584876666769  0.3701861094813452  0.5069243481118448
  0.7235114065680435  0.1138031482810575  0.5258826688351803
  0.6916536674545313  0.1544790436924615  0.5363818761222845
  0.6518409204771416  0.0839799292181169  0.5094953793375367
  0.9072823771161111  0.5854023199339053  0.5119550308119116
  0.8645110903621926  0.5125805217904187  0.5101573866471725
  0.9345657468396169  0.5428828931509315  0.4820902102479039
  0.6048662854700737  0.6988386597401544  0.5429719009670819
  0.5322993078670066  0.6705665886372927  0.5428292796217278
  0.5608843037667839  0.6300593155897545  0.5089874401142609
  0.3509937958992708  0.8407175652410359  0.5249578764120599
  0.3914274731813023  0.9096080350880626  0.4894388086636212
  0.6140162153378554  0.8141395228429573  0.5404010750115589
  0.8362546604739478  0.2218452106749353  0.5128452756963426
  0.4284603847551409  0.1843333047547304  0.5133237919871974
  0.7993255216793429  0.5914929164812719  0.5474128106191287
  0.4251003228844468  0.8392697251210492  0.5332761535151320
  0.4560938836038417  0.5951024687482303  0.5469149693445203
  0.8635852362708789  0.4373311801169137  0.5168614073302606
  0.5828489583681602  0.0856196602415125  0.5340332430126864
  0.5443092121952233  0.4381986560134763  0.5451246781965722
  0.6690318666528867  0.9779744790335485  0.5410422019782786
  0.3499996124716347  0.3510224300436775  0.5273542130204305
  0.9996850120571281  0.3306852993870635  0.5146972459769046
  0.3750189994721751  0.0178508685941594  0.5323509964307007
  0.6854464259440505  0.6464103047512850  0.5576355467072602
  0.5441625345875138  0.7443216614480690  0.5876396815349665
  0.7666802524262124  0.2213756561180134  0.5625191965198653
  0.4975208868807641  0.2563211068708000  0.5577105779294413
  0.7978825937309679  0.5184947243771987  0.5152021414867534
  0.4934627005641659  0.9009473741507392  0.4660131570237454
  0.4505528234162099  0.5305366482259757  0.4694589455362674
  0.9255155769667738  0.4321113634853830  0.4479986093705648
  0.5820036581769372  0.1591938149130030  0.5222529717253011
  0.6190956988047702  0.4398480421908744  0.5333797281869224
  0.0007992282936655  0.6085232063202000  0.4339978625015419
  0.6538861739372166  0.0220011350964953  0.4452805437018768
  0.4136255084776721  0.3708260113864270  0.4382903755446179
  0.3939851877514613  0.9762758726991123  0.4369965555170765
  0.6262868313990140  0.6284495203933247  0.4599148646610587
  0.2427526916935463  0.8384411351951329  0.5112694839663945
  0.2389237338289973  0.4963077472665560  0.5979596977411177
  0.2033112013327383  0.6197045161149148  0.5639872615608184
  0.0553942054004466  0.3396051357368606  0.5500961936585966
  0.2417550905532266  0.7177820944779469  0.5957330261871192
  0.2384697642371947  0.3752193992589383  0.5169354610364252
  0.1015593538196669  0.5086744968948906  0.4288036303423084
  0.0575106487001023  0.6263543985162130  0.3929054113055415
  0.6398231957533227  0.7771303609430049  0.5317375394941379
  0.7998456453729332  0.1586901319551899  0.5072715824092668
  0.4014806252807546  0.2200041699762991  0.5002441507790465
  0.8625070329715214  0.6182217221959831  0.5495549054220277
  0.4621376782851314  0.8152189221364381  0.5576661719672131
  0.3944879540256352  0.5564054448145868  0.5678565149157109
  0.8386344092700710  0.3753447437655595  0.5358881086798561
  0.5197677890447281  0.0571033832941410  0.5375018663086735
  0.5789152238679378  0.5008698535561038  0.5588173720865655
  0.9856459807623210  0.6534146834059271  0.5681854363936409
  0.7156572936031864  0.0341237192038264  0.5755446276425147
  0.3578931865981616  0.3028582272611260  0.5583398099663697
  0.3284637976576974  0.9605616921320390  0.5630337832399732
  0.6735446131932576  0.6918433364188701  0.5897312338685907
  0.5213153572233864  0.7826822319867759  0.6085970989052925
  0.8043276597020323  0.2836185549905608  0.5770141392547501
  0.5231954847760889  0.2201317574607060  0.5764811140872865
  0.7349109049767577  0.4915927916599045  0.5138731718988439
  0.4551987940255842  0.9221719513481190  0.4348080643987942
  0.5105918334282151  0.5705642078661128  0.4422285812532039
  0.9484452908311880  0.4931395637491249  0.4238633254938478
  0.6454301516692951  0.1879031464428635  0.5246227533056000
  0.5842391946753338  0.3764529955477229  0.5269910037590506
  0.6156259974527742  0.9664183035567220  0.3997016014272177
  0.3986217975877082  0.4113275067314248  0.3950691097372996
  0.9905295205805515  0.3770468912956204  0.3770408600978143
  0.4328303953720933  0.0329070955952488  0.3952576519070590
  0.6453745798136055  0.5910162354808151  0.4172616434397085
  0.1044852342288038  0.6629267592713504  0.5033074088723879
  0.1702248724386806  0.7016508339168013  0.5334964580601635
  0.1450700522887018  0.6349063227572813  0.5072357164845158
  0.3159051286709840  0.4427881618101992  0.5354026401937944
  0.3197640213164732  0.8478106019953486  0.5295709221198095
  0.1050489717678644  0.4183564978144787  0.4922044978313522
  0.1692270724834373  0.4430484696366435  0.5295487048132443
  0.1467210812063797  0.4867185961264937  0.5044792424539750
  0.2426293701510218  0.8107221727916283  0.5266909347190065
  0.2397704500129763  0.4704738808413467  0.5755109363331101
  0.1494967129777933  0.5981106215385168  0.5009031597366587
  0.1796068065805798  0.5941180502150090  0.5356763288839375
  0.1508755014540100  0.5279422889757299  0.5010881264260547
  0.0405940290965248  0.3502829193288477  0.5152440484227654
  0.2072172618002952  0.7419835391984861  0.5454822986928463
  0.2426802818347014  0.7444049562552308  0.5728785550943414
  0.2791084942976951  0.8117513471294089  0.5442952951178981
  0.2754346440340214  0.4384769238569888  0.5496320276729350
  0.2388284991828371  0.4032572673093782  0.5309368623041379
  0.2046897824280052  0.4380815396033739  0.5455329583080086
  0.1232096692543792  0.5332899448070805  0.4610738756243435
  0.0620165927061080  0.6538498519469513  0.4913054012329141
  0.0411404193175784  0.6295236069870356  0.4352472665207756
  0.0631221113310119  0.3852089874653757  0.4754900803847377
  0.6054905388850358  0.9169035908292713  0.5072115680118330
  0.5776511034688170  0.8517979859005180  0.5415529459264761
  0.5367229396688700  0.8765376692102720  0.5097037778405706
  0.3541645047567030  0.4162172642291111  0.4997103474496711
  0.3823820932081503  0.4847720093683208  0.5097355693941239
  0.9391691809550906  0.3338776706937736  0.4806331793085121
  0.8737823141788184  0.2961530402311112  0.5132228073350547
  0.8993058107043765  0.3626573404136622  0.4849094505336495
  0.4388089548746592  0.0804239901849826  0.5029272657892250
  0.4655624900026041  0.1472655864330790  0.5253195490499678
  0.5072799902911669  0.1206157254020468  0.5175387170247348
  0.6848494944295709  0.5832385509150839  0.5253846253127108
  0.7242822405056089  0.5550923569183794  0.5401325907579420
  0.6554423289913913  0.5144485841699833  0.5371854029326926
  0.4385945266054136  0.3353584631625282  0.5033746259143683
  0.4670777577544243  0.2969475620450908  0.5281331123880335
  0.5061731499482391  0.3658107493524483  0.5247476943197640
  0.6863948828937581  0.0824529763833652  0.5112369811711943
  0.7244175526290775  0.1496303244410200  0.5351401413721959
  0.6559341395393830  0.1201915752344362  0.5252298472078749
  0.9379242249230018  0.5793736453583094  0.4934053999651908
  0.8706831125748735  0.5505936180398407  0.5158782186216584
  0.8976209207919368  0.5104809459184168  0.4940931782731965
  0.5978273532662541  0.6623932516496041  0.5210732195316012
  0.5707780904581057  0.7014156034869643  0.5503014908489092
  0.5291529695051054  0.6352923040972769  0.5229247713894623
  0.3586434781812713  0.9137696970152334  0.4983144583304124
  0.3863591881273507  0.8729291143596996  0.5055562150043684
  0.6124628039547133  0.7782204257963414  0.5450863085164315
  0.8007611941567063  0.1871611363437395  0.5200473140817792
  0.4290975008126168  0.2199248346176006  0.5154940264213437
  0.8336941208865269  0.5899054845991927  0.5414989752234334
  0.4956238363106493  0.8720348633943615  0.5017875968319743
  0.4607371383089642  0.8400592143189698  0.5324590541962166
  0.4237861330610144  0.8696929185565168  0.5010977794198439
  0.4189689023794472  0.5263166030593496  0.5061888276875166
  0.4212370793073745  0.5594295717707993  0.5419787265527773
  0.4884143910918368  0.5981928064914541  0.5141237238880905
  0.8956745805597706  0.3998902021835207  0.4806282526426955
  0.8638410798180161  0.4022656558789492  0.5125439912576439
  0.8946615017096420  0.4699878049575830  0.4874150724560167
  0.5474076445403639  0.1228159731336262  0.5237997622621293
  0.5481149892182131  0.0861965600175765  0.5322046490915895
  0.6175359104756026  0.1217784648169626  0.5288314303828727
  0.6172724553447893  0.4741957250242379  0.5402111132412273
  0.5797490432758678  0.4729519045014712  0.5489588678080750
  0.5459490123341979  0.4040094613830050  0.5345614675017956
  0.0016722159319116  0.6449929993160879  0.5318690543142210
  0.6907511923797216  0.0189028436459253  0.5396553639074853
  0.3692745495350493  0.3294542517306738  0.5256203854071799
  0.3541714801623144  0.9768863267140873  0.5289242158242615
  0.6649673350266951  0.6668160930761573  0.5544515213354586
  0.5802892298267963  0.8149994386009141  0.5580036529025776
  0.5466326679019318  0.7805789884102552  0.5869951339836206
  0.5762305294355912  0.7424752342252106  0.5633491866872262
  0.8368722793713772  0.2565055545147672  0.5293706938883460
  0.8024987966033947  0.2557064048676878  0.5581831497984453
  0.7651836290650991  0.1870322251023211  0.5408881181854497
  0.4626647097257433  0.1848287491950913  0.5325128103958789
  0.4965327415207241  0.2207320199111393  0.5574250472332807
  0.4642029867752555  0.2564257351461734  0.5348658718875541
  0.7641671725629280  0.5563417733398595  0.5378586475017997
  0.7637506810257477  0.5198237906025582  0.5219504389565301
  0.8332094281397033  0.5534873448321136  0.5252384626220774
  0.4576253876075853  0.8993457069414248  0.4646243160697026
  0.4848448799748013  0.5664317870339204  0.4725354440405098
  0.9247037406317844  0.4667772655931088  0.4506518525270664
  0.6169644501814844  0.1586253725191540  0.5255064672746315
  0.5834573104356409  0.4047804448840040  0.5317541750984418
  0.9806823498820307  0.6135754398821618  0.4850950689910292
  0.6390329475878005  0.9594426988264928  0.4962318306313591
  0.6351340845730391  0.9816787403336420  0.4426883185097168
  0.6792272134814397  0.0407609641825388  0.4967968292657545
  0.3636094892075619  0.3832242684156384  0.4864957945123365
  0.3922795756390869  0.3897171349457267  0.4357230224867621
  0.4046373815030009  0.3429932402303564  0.4867222347708378
  0.9818849131933476  0.3433848776618333  0.4706668805311480
  0.0050471369238920  0.3715385925867523  0.4197341377342809
  0.4059689919836558  0.0376273819331772  0.4896139990948072
  0.4121203979250296  0.0166045848634226  0.4365466792121637
  0.3671517203565671  0.9561556651222674  0.4862765988543387
  0.6752721688318815  0.6163931735097279  0.5134163391031592
  0.6488762569645203  0.6108637348367765  0.4594067695441737
  0.6319061415802025  0.6541897838189428  0.5104283459552974
 
  0.00000000E+00  0.00000000E+00  0.00000000E+00
  0.00000000E+00  0.00000000E+00  0.00000000E+00
  0.00000000E+00  0.00000000E+00  0.00000000E+00
  0.00000000E+00  0.00000000E+00  0.00000000E+00
  0.00000000E+00  0.00000000E+00  0.00000000E+00
  0.00000000E+00  0.00000000E+00  0.00000000E+00
  0.00000000E+00  0.00000000E+00  0.00000000E+00
  0.00000000E+00  0.00000000E+00  0.00000000E+00
  0.00000000E+00  0.00000000E+00  0.00000000E+00
  0.00000000E+00  0.00000000E+00  0.00000000E+00
  0.00000000E+00  0.00000000E+00  0.00000000E+00
  0.00000000E+00  0.00000000E+00  0.00000000E+00
  0.00000000E+00  0.00000000E+00  0.00000000E+00
  0.00000000E+00  0.00000000E+00  0.00000000E+00
  0.00000000E+00  0.00000000E+00  0.00000000E+00
  0.00000000E+00  0.00000000E+00  0.00000000E+00
  0.00000000E+00  0.00000000E+00  0.00000000E+00
  0.00000000E+00  0.00000000E+00  0.00000000E+00
  0.00000000E+00  0.00000000E+00  0.00000000E+00
  0.00000000E+00  0.00000000E+00  0.00000000E+00
  0.00000000E+00  0.00000000E+00  0.00000000E+00
  0.00000000E+00  0.00000000E+00  0.00000000E+00
  0.00000000E+00  0.00000000E+00  0.00000000E+00
  0.00000000E+00  0.00000000E+00  0.00000000E+00
  0.00000000E+00  0.00000000E+00  0.00000000E+00
  0.00000000E+00  0.00000000E+00  0.00000000E+00
  0.00000000E+00  0.00000000E+00  0.00000000E+00
  0.00000000E+00  0.00000000E+00  0.00000000E+00
  0.00000000E+00  0.00000000E+00  0.00000000E+00
  0.00000000E+00  0.00000000E+00  0.00000000E+00
  0.00000000E+00  0.00000000E+00  0.00000000E+00
  0.00000000E+00  0.00000000E+00  0.00000000E+00
  0.00000000E+00  0.00000000E+00  0.00000000E+00
  0.00000000E+00  0.00000000E+00  0.00000000E+00
  0.00000000E+00  0.00000000E+00  0.00000000E+00
  0.00000000E+00  0.00000000E+00  0.00000000E+00
  0.00000000E+00  0.00000000E+00  0.00000000E+00
  0.00000000E+00  0.00000000E+00  0.00000000E+00
  0.00000000E+00  0.00000000E+00  0.00000000E+00
  0.00000000E+00  0.00000000E+00  0.00000000E+00
  0.00000000E+00  0.00000000E+00  0.00000000E+00
  0.00000000E+00  0.00000000E+00  0.00000000E+00
  0.00000000E+00  0.00000000E+00  0.00000000E+00
  0.00000000E+00  0.00000000E+00  0.00000000E+00
  0.00000000E+00  0.00000000E+00  0.00000000E+00
  0.00000000E+00  0.00000000E+00  0.00000000E+00
  0.00000000E+00  0.00000000E+00  0.00000000E+00
  0.00000000E+00  0.00000000E+00  0.00000000E+00
  0.00000000E+00  0.00000000E+00  0.00000000E+00
  0.00000000E+00  0.00000000E+00  0.00000000E+00
  0.00000000E+00  0.00000000E+00  0.00000000E+00
  0.00000000E+00  0.00000000E+00  0.00000000E+00
  0.00000000E+00  0.00000000E+00  0.00000000E+00
  0.00000000E+00  0.00000000E+00  0.00000000E+00
  0.00000000E+00  0.00000000E+00  0.00000000E+00
  0.00000000E+00  0.00000000E+00  0.00000000E+00
  0.00000000E+00  0.00000000E+00  0.00000000E+00
  0.00000000E+00  0.00000000E+00  0.00000000E+00
  0.00000000E+00  0.00000000E+00  0.00000000E+00
  0.00000000E+00  0.00000000E+00  0.00000000E+00
  0.00000000E+00  0.00000000E+00  0.00000000E+00
  0.00000000E+00  0.00000000E+00  0.00000000E+00
  0.00000000E+00  0.00000000E+00  0.00000000E+00
  0.00000000E+00  0.00000000E+00  0.00000000E+00
  0.00000000E+00  0.00000000E+00  0.00000000E+00
  0.00000000E+00  0.00000000E+00  0.00000000E+00
  0.00000000E+00  0.00000000E+00  0.00000000E+00
  0.00000000E+00  0.00000000E+00  0.00000000E+00
  0.00000000E+00  0.00000000E+00  0.00000000E+00
  0.00000000E+00  0.00000000E+00  0.00000000E+00
  0.00000000E+00  0.00000000E+00  0.00000000E+00
  0.00000000E+00  0.00000000E+00  0.00000000E+00
  0.00000000E+00  0.00000000E+00  0.00000000E+00
  0.00000000E+00  0.00000000E+00  0.00000000E+00
  0.00000000E+00  0.00000000E+00  0.00000000E+00
  0.00000000E+00  0.00000000E+00  0.00000000E+00
  0.00000000E+00  0.00000000E+00  0.00000000E+00
  0.00000000E+00  0.00000000E+00  0.00000000E+00
  0.00000000E+00  0.00000000E+00  0.00000000E+00
  0.00000000E+00  0.00000000E+00  0.00000000E+00
  0.00000000E+00  0.00000000E+00  0.00000000E+00
  0.00000000E+00  0.00000000E+00  0.00000000E+00
  0.00000000E+00  0.00000000E+00  0.00000000E+00
  0.00000000E+00  0.00000000E+00  0.00000000E+00
  0.00000000E+00  0.00000000E+00  0.00000000E+00
  0.00000000E+00  0.00000000E+00  0.00000000E+00
  0.00000000E+00  0.00000000E+00  0.00000000E+00
  0.00000000E+00  0.00000000E+00  0.00000000E+00
  0.00000000E+00  0.00000000E+00  0.00000000E+00
  0.00000000E+00  0.00000000E+00  0.00000000E+00
  0.00000000E+00  0.00000000E+00  0.00000000E+00
  0.00000000E+00  0.00000000E+00  0.00000000E+00
  0.00000000E+00  0.00000000E+00  0.00000000E+00
  0.00000000E+00  0.00000000E+00  0.00000000E+00
  0.00000000E+00  0.00000000E+00  0.00000000E+00
  0.00000000E+00  0.00000000E+00  0.00000000E+00
  0.00000000E+00  0.00000000E+00  0.00000000E+00
  0.00000000E+00  0.00000000E+00  0.00000000E+00
  0.00000000E+00  0.00000000E+00  0.00000000E+00
  0.00000000E+00  0.00000000E+00  0.00000000E+00
  0.00000000E+00  0.00000000E+00  0.00000000E+00
  0.00000000E+00  0.00000000E+00  0.00000000E+00
  0.00000000E+00  0.00000000E+00  0.00000000E+00
  0.00000000E+00  0.00000000E+00  0.00000000E+00
  0.00000000E+00  0.00000000E+00  0.00000000E+00
  0.00000000E+00  0.00000000E+00  0.00000000E+00
  0.00000000E+00  0.00000000E+00  0.00000000E+00
  0.00000000E+00  0.00000000E+00  0.00000000E+00
  0.00000000E+00  0.00000000E+00  0.00000000E+00
  0.00000000E+00  0.00000000E+00  0.00000000E+00
  0.00000000E+00  0.00000000E+00  0.00000000E+00
  0.00000000E+00  0.00000000E+00  0.00000000E+00
  0.00000000E+00  0.00000000E+00  0.00000000E+00
  0.00000000E+00  0.00000000E+00  0.00000000E+00
  0.00000000E+00  0.00000000E+00  0.00000000E+00
  0.00000000E+00  0.00000000E+00  0.00000000E+00
  0.00000000E+00  0.00000000E+00  0.00000000E+00
  0.00000000E+00  0.00000000E+00  0.00000000E+00
  0.00000000E+00  0.00000000E+00  0.00000000E+00
  0.00000000E+00  0.00000000E+00  0.00000000E+00
  0.00000000E+00  0.00000000E+00  0.00000000E+00
  0.00000000E+00  0.00000000E+00  0.00000000E+00
  0.00000000E+00  0.00000000E+00  0.00000000E+00
  0.00000000E+00  0.00000000E+00  0.00000000E+00
  0.00000000E+00  0.00000000E+00  0.00000000E+00
  0.00000000E+00  0.00000000E+00  0.00000000E+00
  0.00000000E+00  0.00000000E+00  0.00000000E+00
  0.00000000E+00  0.00000000E+00  0.00000000E+00
  0.00000000E+00  0.00000000E+00  0.00000000E+00
  0.00000000E+00  0.00000000E+00  0.00000000E+00
  0.00000000E+00  0.00000000E+00  0.00000000E+00
  0.00000000E+00  0.00000000E+00  0.00000000E+00
  0.00000000E+00  0.00000000E+00  0.00000000E+00
  0.00000000E+00  0.00000000E+00  0.00000000E+00
  0.00000000E+00  0.00000000E+00  0.00000000E+00
  0.00000000E+00  0.00000000E+00  0.00000000E+00
  0.00000000E+00  0.00000000E+00  0.00000000E+00
  0.00000000E+00  0.00000000E+00  0.00000000E+00
  0.00000000E+00  0.00000000E+00  0.00000000E+00
  0.00000000E+00  0.00000000E+00  0.00000000E+00
  0.00000000E+00  0.00000000E+00  0.00000000E+00
  0.00000000E+00  0.00000000E+00  0.00000000E+00
  0.00000000E+00  0.00000000E+00  0.00000000E+00
  0.00000000E+00  0.00000000E+00  0.00000000E+00
  0.00000000E+00  0.00000000E+00  0.00000000E+00
  0.00000000E+00  0.00000000E+00  0.00000000E+00
  0.00000000E+00  0.00000000E+00  0.00000000E+00
  0.00000000E+00  0.00000000E+00  0.00000000E+00
  0.00000000E+00  0.00000000E+00  0.00000000E+00
  0.00000000E+00  0.00000000E+00  0.00000000E+00
  0.00000000E+00  0.00000000E+00  0.00000000E+00
  0.00000000E+00  0.00000000E+00  0.00000000E+00
  0.00000000E+00  0.00000000E+00  0.00000000E+00
  0.00000000E+00  0.00000000E+00  0.00000000E+00
  0.00000000E+00  0.00000000E+00  0.00000000E+00
  0.00000000E+00  0.00000000E+00  0.00000000E+00
  0.00000000E+00  0.00000000E+00  0.00000000E+00
  0.00000000E+00  0.00000000E+00  0.00000000E+00
  0.00000000E+00  0.00000000E+00  0.00000000E+00
  0.00000000E+00  0.00000000E+00  0.00000000E+00
  0.00000000E+00  0.00000000E+00  0.00000000E+00
  0.00000000E+00  0.00000000E+00  0.00000000E+00
  0.00000000E+00  0.00000000E+00  0.00000000E+00
  0.00000000E+00  0.00000000E+00  0.00000000E+00
  0.00000000E+00  0.00000000E+00  0.00000000E+00
  0.00000000E+00  0.00000000E+00  0.00000000E+00
  0.00000000E+00  0.00000000E+00  0.00000000E+00
  0.00000000E+00  0.00000000E+00  0.00000000E+00
  0.00000000E+00  0.00000000E+00  0.00000000E+00
  0.00000000E+00  0.00000000E+00  0.00000000E+00
  0.00000000E+00  0.00000000E+00  0.00000000E+00
  0.00000000E+00  0.00000000E+00  0.00000000E+00
  0.00000000E+00  0.00000000E+00  0.00000000E+00
  0.00000000E+00  0.00000000E+00  0.00000000E+00
  0.00000000E+00  0.00000000E+00  0.00000000E+00
  0.00000000E+00  0.00000000E+00  0.00000000E+00
  0.00000000E+00  0.00000000E+00  0.00000000E+00
  0.00000000E+00  0.00000000E+00  0.00000000E+00
  0.00000000E+00  0.00000000E+00  0.00000000E+00
  0.00000000E+00  0.00000000E+00  0.00000000E+00
  0.00000000E+00  0.00000000E+00  0.00000000E+00
  0.00000000E+00  0.00000000E+00  0.00000000E+00
  0.00000000E+00  0.00000000E+00  0.00000000E+00
  0.00000000E+00  0.00000000E+00  0.00000000E+00
  0.00000000E+00  0.00000000E+00  0.00000000E+00
  0.00000000E+00  0.00000000E+00  0.00000000E+00
  0.00000000E+00  0.00000000E+00  0.00000000E+00
  0.00000000E+00  0.00000000E+00  0.00000000E+00
  0.00000000E+00  0.00000000E+00  0.00000000E+00
  0.00000000E+00  0.00000000E+00  0.00000000E+00
  0.00000000E+00  0.00000000E+00  0.00000000E+00
  0.00000000E+00  0.00000000E+00  0.00000000E+00
  0.00000000E+00  0.00000000E+00  0.00000000E+00
  0.00000000E+00  0.00000000E+00  0.00000000E+00
  0.00000000E+00  0.00000000E+00  0.00000000E+00
  0.00000000E+00  0.00000000E+00  0.00000000E+00
  0.00000000E+00  0.00000000E+00  0.00000000E+00
  0.00000000E+00  0.00000000E+00  0.00000000E+00
  0.00000000E+00  0.00000000E+00  0.00000000E+00
  0.00000000E+00  0.00000000E+00  0.00000000E+00
  0.00000000E+00  0.00000000E+00  0.00000000E+00
  0.00000000E+00  0.00000000E+00  0.00000000E+00
  0.00000000E+00  0.00000000E+00  0.00000000E+00
  0.00000000E+00  0.00000000E+00  0.00000000E+00
  0.00000000E+00  0.00000000E+00  0.00000000E+00
  0.00000000E+00  0.00000000E+00  0.00000000E+00
  0.00000000E+00  0.00000000E+00  0.00000000E+00
  0.00000000E+00  0.00000000E+00  0.00000000E+00
  0.00000000E+00  0.00000000E+00  0.00000000E+00
  0.00000000E+00  0.00000000E+00  0.00000000E+00
  0.00000000E+00  0.00000000E+00  0.00000000E+00
  0.00000000E+00  0.00000000E+00  0.00000000E+00
  0.00000000E+00  0.00000000E+00  0.00000000E+00
  0.00000000E+00  0.00000000E+00  0.00000000E+00
  0.00000000E+00  0.00000000E+00  0.00000000E+00
  0.00000000E+00  0.00000000E+00  0.00000000E+00
